@RELATION demanda_productos

@ATTRIBUTE cantidadVendidaMes NUMERIC
@ATTRIBUTE stockActual NUMERIC
@ATTRIBUTE precioUnitario NUMERIC
@ATTRIBUTE categoria STRING
@ATTRIBUTE mesVenta {ENERO,FEBRERO,MARZO,ABRIL,MAYO,JUNIO,JULIO,AGOSTO,SEPTIEMBRE,OCTUBRE,NOVIEMBRE,DICIEMBRE}
@ATTRIBUTE frecuenciaReposicion NUMERIC
@ATTRIBUTE tienePromocion {false,true}
@ATTRIBUTE demanda {ALTA,MEDIA,BAJA}

@DATA
69,66,147.49,'MODA',SEPTIEMBRE,8,false,MEDIA
85,2,66.27,'ELECTRONICA',JULIO,3,false,ALTA
134,59,115.74,'MODA',SEPTIEMBRE,3,false,ALTA
140,89,71.34,'HOGAR',JULIO,6,true,ALTA
45,54,92.61,'ELECTRONICA',AGOSTO,1,true,MEDIA
56,40,20.35,'HOGAR',FEBRERO,8,false,MEDIA
139,83,26.04,'ALIMENTOS',MAYO,6,false,ALTA
12,1,2.23,'DEPORTES',ENERO,7,false,BAJA
124,76,1.81,'HOGAR',AGOSTO,2,false,MEDIA
121,30,59.01,'DEPORTES',NOVIEMBRE,6,false,ALTA
106,99,72.01,'ELECTRONICA',OCTUBRE,3,false,ALTA
67,54,129.62,'ALIMENTOS',JUNIO,2,false,MEDIA
118,46,143.29,'ALIMENTOS',MARZO,2,false,ALTA
33,13,113.17,'MODA',ABRIL,2,true,MEDIA
45,64,66.78,'ALIMENTOS',NOVIEMBRE,0,true,MEDIA
99,0,80.78,'MODA',AGOSTO,8,false,ALTA
97,18,38.37,'ELECTRONICA',NOVIEMBRE,3,false,ALTA
30,58,49.09,'HOGAR',ABRIL,9,true,MEDIA
120,22,30.42,'MODA',MAYO,6,true,ALTA
59,85,77.34,'HOGAR',DICIEMBRE,7,false,MEDIA
51,67,132.65,'ELECTRONICA',MARZO,10,false,MEDIA
139,49,72.56,'DEPORTES',ENERO,1,true,ALTA
133,2,79.41,'ELECTRONICA',SEPTIEMBRE,4,true,ALTA
94,50,22.67,'ELECTRONICA',FEBRERO,3,false,ALTA
82,78,107.99,'DEPORTES',JULIO,6,true,ALTA
49,65,77.55,'MODA',JUNIO,9,true,ALTA
24,44,105.5,'MODA',FEBRERO,2,true,BAJA
141,30,139.59,'ELECTRONICA',SEPTIEMBRE,0,true,ALTA
91,80,110.51,'HOGAR',MARZO,3,true,ALTA
76,77,6.3,'HOGAR',AGOSTO,2,true,ALTA
27,17,62.55,'DEPORTES',SEPTIEMBRE,4,true,BAJA
114,46,137.24,'HOGAR',OCTUBRE,8,false,ALTA
141,27,48.22,'DEPORTES',SEPTIEMBRE,0,false,ALTA
110,25,129.77,'MODA',DICIEMBRE,1,true,ALTA
8,59,15.29,'MODA',SEPTIEMBRE,6,true,BAJA
125,36,83.67,'MODA',FEBRERO,4,true,ALTA
127,31,37.99,'MODA',DICIEMBRE,6,true,ALTA
8,20,123.12,'ALIMENTOS',FEBRERO,5,true,BAJA
87,43,102.54,'ALIMENTOS',FEBRERO,7,true,BAJA
67,9,67.59,'DEPORTES',NOVIEMBRE,10,true,ALTA
79,60,72.21,'HOGAR',NOVIEMBRE,9,false,ALTA
92,87,32.45,'DEPORTES',SEPTIEMBRE,1,true,ALTA
85,58,147.52,'ALIMENTOS',DICIEMBRE,2,true,ALTA
0,37,137.91,'ALIMENTOS',JUNIO,8,false,BAJA
102,58,16.5,'ELECTRONICA',JUNIO,4,true,ALTA
64,31,75.33,'ELECTRONICA',MARZO,2,false,MEDIA
130,56,60.81,'DEPORTES',NOVIEMBRE,6,false,ALTA
16,77,81.74,'ALIMENTOS',NOVIEMBRE,8,true,BAJA
110,37,9.06,'MODA',NOVIEMBRE,1,true,ALTA
119,38,116.01,'MODA',MAYO,0,true,ALTA
34,82,125.46,'ALIMENTOS',JULIO,7,true,MEDIA
36,33,14.55,'ELECTRONICA',ABRIL,9,false,MEDIA
24,78,2.12,'MODA',FEBRERO,8,true,BAJA
11,97,86.23,'DEPORTES',JULIO,4,true,BAJA
16,100,29.2,'DEPORTES',OCTUBRE,4,false,BAJA
32,2,68.46,'HOGAR',NOVIEMBRE,6,false,MEDIA
130,56,86.43,'DEPORTES',MAYO,0,false,ALTA
8,91,124.48,'DEPORTES',MAYO,8,false,BAJA
22,63,112.49,'ALIMENTOS',DICIEMBRE,5,false,BAJA
130,67,34.95,'ELECTRONICA',JULIO,10,false,ALTA
144,50,121.31,'DEPORTES',JULIO,4,false,ALTA
56,100,75.23,'DEPORTES',JUNIO,2,false,MEDIA
19,44,117.88,'HOGAR',ABRIL,6,true,BAJA
149,41,70.65,'HOGAR',ENERO,1,false,ALTA
47,94,145.78,'MODA',MARZO,0,true,MEDIA
106,57,129.33,'ALIMENTOS',DICIEMBRE,5,true,ALTA
111,93,59.26,'MODA',JULIO,6,false,MEDIA
79,92,91.0,'DEPORTES',OCTUBRE,9,true,ALTA
44,29,140.97,'DEPORTES',MARZO,5,true,MEDIA
5,20,112.11,'DEPORTES',FEBRERO,6,false,BAJA
142,0,66.7,'ELECTRONICA',MAYO,9,false,ALTA
81,81,23.54,'HOGAR',SEPTIEMBRE,6,false,ALTA
76,21,89.75,'ALIMENTOS',NOVIEMBRE,8,true,ALTA
45,73,94.89,'ELECTRONICA',MARZO,10,true,MEDIA
126,25,97.74,'MODA',MARZO,4,false,ALTA
94,25,25.41,'HOGAR',FEBRERO,4,true,ALTA
44,90,31.99,'MODA',OCTUBRE,2,false,MEDIA
32,30,83.35,'MODA',AGOSTO,9,true,MEDIA
127,33,121.07,'DEPORTES',ABRIL,1,false,ALTA
36,57,142.82,'DEPORTES',ENERO,5,true,MEDIA
48,79,81.43,'HOGAR',SEPTIEMBRE,0,false,MEDIA
4,48,137.41,'ALIMENTOS',MAYO,6,false,BAJA
63,7,108.91,'MODA',ABRIL,1,true,BAJA
44,82,70.08,'HOGAR',ABRIL,9,false,MEDIA
132,63,121.28,'HOGAR',DICIEMBRE,4,false,ALTA
98,43,59.67,'DEPORTES',DICIEMBRE,4,false,ALTA
135,48,79.02,'HOGAR',FEBRERO,6,false,ALTA
98,59,147.2,'HOGAR',MARZO,6,false,MEDIA
4,25,131.78,'DEPORTES',MARZO,1,true,BAJA
65,27,14.25,'MODA',NOVIEMBRE,9,true,BAJA
31,37,54.98,'ELECTRONICA',OCTUBRE,7,false,MEDIA
44,74,11.33,'MODA',NOVIEMBRE,8,false,MEDIA
42,99,13.02,'ALIMENTOS',OCTUBRE,9,true,MEDIA
92,29,49.52,'DEPORTES',MAYO,4,false,ALTA
98,23,67.35,'HOGAR',MAYO,8,false,ALTA
73,21,14.47,'ELECTRONICA',NOVIEMBRE,10,false,MEDIA
141,27,95.09,'DEPORTES',OCTUBRE,9,false,ALTA
113,24,2.71,'HOGAR',AGOSTO,10,false,ALTA
71,47,64.09,'ALIMENTOS',JUNIO,5,false,MEDIA
105,70,139.44,'DEPORTES',MARZO,5,true,MEDIA
34,30,127.11,'ALIMENTOS',MAYO,4,true,ALTA
127,68,110.79,'HOGAR',AGOSTO,0,false,ALTA
116,10,110.38,'HOGAR',MARZO,7,true,ALTA
45,77,4.49,'ELECTRONICA',NOVIEMBRE,6,true,MEDIA
50,51,114.38,'MODA',FEBRERO,2,false,MEDIA
148,50,78.29,'ELECTRONICA',SEPTIEMBRE,0,false,ALTA
118,61,44.05,'HOGAR',DICIEMBRE,3,true,ALTA
70,27,76.71,'MODA',NOVIEMBRE,6,false,MEDIA
112,18,105.69,'ELECTRONICA',DICIEMBRE,10,true,ALTA
98,41,58.31,'ELECTRONICA',MAYO,5,false,ALTA
21,87,139.29,'HOGAR',MAYO,8,false,BAJA
74,46,107.32,'ALIMENTOS',FEBRERO,1,true,MEDIA
84,81,99.47,'DEPORTES',ABRIL,4,true,ALTA
126,8,67.36,'ELECTRONICA',JULIO,4,true,ALTA
128,59,116.89,'DEPORTES',MARZO,7,true,ALTA
95,66,28.85,'ALIMENTOS',ABRIL,9,true,MEDIA
18,42,58.72,'DEPORTES',DICIEMBRE,2,true,BAJA
78,97,137.2,'DEPORTES',DICIEMBRE,0,true,ALTA
130,15,109.57,'HOGAR',DICIEMBRE,8,false,ALTA
150,42,105.31,'ELECTRONICA',SEPTIEMBRE,5,true,ALTA
108,68,20.35,'ALIMENTOS',NOVIEMBRE,10,true,ALTA
75,97,56.38,'ELECTRONICA',FEBRERO,0,false,MEDIA
127,98,63.27,'DEPORTES',OCTUBRE,2,true,ALTA
12,22,98.39,'DEPORTES',SEPTIEMBRE,2,true,BAJA
62,55,23.77,'DEPORTES',JUNIO,3,true,MEDIA
46,38,141.62,'ELECTRONICA',MAYO,6,false,ALTA
71,31,125.05,'ELECTRONICA',SEPTIEMBRE,2,true,MEDIA
94,36,77.81,'ALIMENTOS',DICIEMBRE,8,false,ALTA
46,13,56.55,'MODA',NOVIEMBRE,2,true,MEDIA
54,5,27.13,'DEPORTES',MARZO,6,false,MEDIA
110,94,130.78,'MODA',JULIO,10,true,ALTA
123,12,69.72,'DEPORTES',OCTUBRE,4,true,ALTA
38,68,94.75,'DEPORTES',ABRIL,4,false,MEDIA
63,14,108.3,'ELECTRONICA',MAYO,3,false,MEDIA
16,12,5.85,'DEPORTES',AGOSTO,4,false,BAJA
47,82,125.17,'HOGAR',MAYO,2,true,MEDIA
86,100,147.72,'DEPORTES',MARZO,0,true,ALTA
53,11,128.17,'DEPORTES',DICIEMBRE,9,false,MEDIA
91,85,33.87,'ALIMENTOS',NOVIEMBRE,0,false,ALTA
109,10,82.83,'DEPORTES',JULIO,5,true,BAJA
23,76,31.04,'ALIMENTOS',OCTUBRE,0,false,BAJA
33,32,84.17,'HOGAR',SEPTIEMBRE,5,true,ALTA
44,65,122.28,'HOGAR',ABRIL,3,true,MEDIA
44,85,75.85,'MODA',ABRIL,3,true,MEDIA
58,24,94.2,'HOGAR',OCTUBRE,10,false,MEDIA
20,14,107.73,'HOGAR',MAYO,2,true,BAJA
147,44,145.89,'ALIMENTOS',JULIO,1,false,ALTA
12,16,69.44,'ALIMENTOS',ENERO,6,false,BAJA
107,32,56.45,'ALIMENTOS',MAYO,10,true,ALTA
31,63,69.92,'ELECTRONICA',NOVIEMBRE,1,true,MEDIA
40,70,46.69,'HOGAR',NOVIEMBRE,7,true,MEDIA
122,1,38.69,'DEPORTES',OCTUBRE,4,true,ALTA
86,3,132.42,'MODA',ENERO,4,false,ALTA
67,12,137.35,'ELECTRONICA',JUNIO,2,false,MEDIA
57,24,128.86,'DEPORTES',NOVIEMBRE,6,false,MEDIA
131,70,111.38,'ALIMENTOS',DICIEMBRE,8,true,ALTA
4,95,83.01,'MODA',MARZO,7,false,BAJA
51,3,95.07,'DEPORTES',OCTUBRE,10,false,BAJA
58,56,87.66,'HOGAR',JUNIO,2,true,MEDIA
34,100,53.07,'HOGAR',OCTUBRE,4,false,MEDIA
130,63,146.86,'ELECTRONICA',OCTUBRE,8,false,ALTA
81,49,83.17,'ELECTRONICA',OCTUBRE,0,true,ALTA
27,60,123.3,'HOGAR',OCTUBRE,2,true,BAJA
26,90,69.6,'ELECTRONICA',OCTUBRE,0,false,BAJA
78,81,123.77,'DEPORTES',NOVIEMBRE,1,true,ALTA
100,66,32.08,'ELECTRONICA',MAYO,4,true,ALTA
80,24,111.35,'DEPORTES',JULIO,2,true,ALTA
137,85,130.71,'DEPORTES',NOVIEMBRE,6,false,ALTA
149,35,51.23,'ELECTRONICA',ABRIL,3,false,ALTA
79,96,138.12,'DEPORTES',JUNIO,9,false,ALTA
110,13,56.71,'DEPORTES',MARZO,8,false,ALTA
26,64,133.83,'DEPORTES',OCTUBRE,10,true,BAJA
68,52,129.43,'MODA',JULIO,0,false,MEDIA
48,22,144.2,'ALIMENTOS',NOVIEMBRE,5,true,MEDIA
82,89,99.41,'HOGAR',JULIO,2,true,ALTA
8,43,83.69,'ALIMENTOS',ENERO,5,true,ALTA
41,17,4.08,'ELECTRONICA',ENERO,10,false,MEDIA
2,21,89.41,'ALIMENTOS',SEPTIEMBRE,4,true,BAJA
63,92,26.4,'ELECTRONICA',ABRIL,6,true,MEDIA
8,12,22.09,'MODA',JUNIO,3,true,BAJA
144,22,30.73,'ELECTRONICA',SEPTIEMBRE,10,false,ALTA
76,41,129.55,'MODA',ENERO,9,true,ALTA
10,29,90.04,'ALIMENTOS',ABRIL,6,true,BAJA
106,77,41.71,'MODA',ABRIL,9,false,ALTA
125,81,90.86,'ALIMENTOS',MARZO,9,true,ALTA
115,55,107.47,'MODA',MAYO,8,true,ALTA
95,38,30.43,'ALIMENTOS',MARZO,3,false,ALTA
115,16,118.23,'ELECTRONICA',JULIO,7,true,ALTA
1,55,94.39,'ELECTRONICA',MAYO,4,false,ALTA
59,65,93.04,'ALIMENTOS',JUNIO,5,false,MEDIA
91,98,85.83,'ALIMENTOS',JUNIO,1,true,ALTA
25,68,27.11,'MODA',JULIO,7,false,BAJA
121,49,70.94,'MODA',DICIEMBRE,1,true,ALTA
48,13,80.78,'DEPORTES',ENERO,5,true,MEDIA
146,82,108.33,'ELECTRONICA',SEPTIEMBRE,3,true,ALTA
98,9,40.22,'ELECTRONICA',DICIEMBRE,0,false,ALTA
118,40,80.36,'ELECTRONICA',OCTUBRE,0,true,ALTA
15,99,120.57,'DEPORTES',JUNIO,9,true,BAJA
122,14,144.43,'HOGAR',ENERO,8,false,ALTA
27,94,28.1,'HOGAR',JULIO,7,false,BAJA
143,80,58.59,'MODA',MARZO,9,false,ALTA
1,100,5.79,'HOGAR',ABRIL,9,true,BAJA
89,27,42.56,'ALIMENTOS',NOVIEMBRE,9,true,BAJA
132,31,98.08,'HOGAR',FEBRERO,8,false,ALTA
144,58,81.36,'ELECTRONICA',DICIEMBRE,1,false,ALTA
53,57,56.06,'ELECTRONICA',ABRIL,6,true,MEDIA
64,51,33.34,'ELECTRONICA',MARZO,1,false,MEDIA
58,43,64.89,'ELECTRONICA',JULIO,0,false,MEDIA
131,89,57.45,'MODA',AGOSTO,8,true,ALTA
90,25,29.18,'MODA',NOVIEMBRE,10,true,MEDIA
24,3,117.39,'ELECTRONICA',SEPTIEMBRE,4,false,BAJA
148,69,33.73,'MODA',JULIO,9,false,ALTA
33,57,10.91,'HOGAR',ABRIL,6,true,ALTA
116,96,140.91,'MODA',JULIO,8,false,MEDIA
7,32,96.45,'MODA',NOVIEMBRE,9,false,BAJA
1,82,95.23,'DEPORTES',AGOSTO,5,true,BAJA
13,15,48.22,'ELECTRONICA',JUNIO,2,false,MEDIA
61,29,136.18,'DEPORTES',JULIO,8,true,MEDIA
73,98,56.37,'ELECTRONICA',MARZO,10,true,MEDIA
15,16,65.71,'HOGAR',JULIO,0,false,BAJA
42,66,100.18,'HOGAR',FEBRERO,9,false,MEDIA
42,25,28.39,'ELECTRONICA',OCTUBRE,8,false,MEDIA
74,39,7.61,'ELECTRONICA',OCTUBRE,3,true,MEDIA
54,1,118.76,'DEPORTES',MARZO,1,true,MEDIA
19,85,132.53,'DEPORTES',SEPTIEMBRE,5,true,BAJA
15,71,59.22,'ELECTRONICA',MARZO,1,true,ALTA
21,71,123.24,'MODA',ENERO,9,false,BAJA
123,10,120.38,'DEPORTES',JULIO,10,false,ALTA
14,33,85.25,'DEPORTES',ABRIL,7,false,BAJA
121,27,137.73,'HOGAR',NOVIEMBRE,9,true,ALTA
147,19,105.35,'ALIMENTOS',NOVIEMBRE,0,false,ALTA
102,89,76.41,'ELECTRONICA',JUNIO,0,true,ALTA
135,41,7.96,'ALIMENTOS',FEBRERO,2,false,ALTA
131,41,14.08,'DEPORTES',AGOSTO,6,true,ALTA
18,79,14.98,'DEPORTES',ENERO,8,false,BAJA
51,76,34.35,'ELECTRONICA',ABRIL,5,true,ALTA
145,3,52.98,'ELECTRONICA',AGOSTO,1,true,ALTA
63,49,80.67,'ELECTRONICA',OCTUBRE,1,false,MEDIA
55,84,115.91,'DEPORTES',FEBRERO,3,false,MEDIA
101,69,129.73,'ALIMENTOS',AGOSTO,10,true,ALTA
45,71,135.82,'ELECTRONICA',OCTUBRE,9,false,MEDIA
30,54,40.49,'ALIMENTOS',OCTUBRE,8,false,MEDIA
77,43,130.05,'HOGAR',JULIO,9,false,ALTA
111,99,75.86,'HOGAR',MAYO,4,true,ALTA
114,46,116.96,'ELECTRONICA',JUNIO,4,true,ALTA
134,91,55.43,'DEPORTES',SEPTIEMBRE,4,true,ALTA
33,46,12.55,'HOGAR',ABRIL,4,true,MEDIA
27,4,66.86,'DEPORTES',AGOSTO,10,false,BAJA
118,81,109.09,'DEPORTES',MAYO,10,true,ALTA
7,78,127.94,'ALIMENTOS',JULIO,6,true,BAJA
107,19,72.5,'ALIMENTOS',DICIEMBRE,4,true,MEDIA
142,79,101.31,'DEPORTES',ABRIL,5,false,ALTA
107,20,85.5,'HOGAR',NOVIEMBRE,1,false,ALTA
121,85,38.29,'HOGAR',SEPTIEMBRE,0,false,ALTA
85,0,119.91,'HOGAR',ENERO,5,false,ALTA
114,30,81.84,'MODA',JULIO,9,true,MEDIA
13,78,126.41,'DEPORTES',ENERO,5,true,MEDIA
130,50,86.21,'DEPORTES',SEPTIEMBRE,1,false,ALTA
31,17,136.61,'MODA',JULIO,6,false,MEDIA
122,55,36.55,'MODA',NOVIEMBRE,0,true,ALTA
126,62,113.64,'HOGAR',OCTUBRE,8,false,ALTA
125,35,72.66,'ELECTRONICA',AGOSTO,9,true,ALTA
61,100,110.43,'ALIMENTOS',JUNIO,10,true,BAJA
74,43,33.93,'HOGAR',MARZO,9,true,MEDIA
144,75,100.7,'DEPORTES',MARZO,2,true,ALTA
102,55,11.61,'ELECTRONICA',NOVIEMBRE,9,false,BAJA
3,29,15.12,'DEPORTES',AGOSTO,8,false,BAJA
3,20,144.35,'HOGAR',DICIEMBRE,10,false,BAJA
75,100,141.51,'DEPORTES',JULIO,2,false,ALTA
5,86,64.93,'DEPORTES',ABRIL,8,true,BAJA
93,49,83.65,'MODA',AGOSTO,2,true,ALTA
52,16,56.64,'ELECTRONICA',ENERO,0,true,MEDIA
121,80,70.49,'ELECTRONICA',ABRIL,0,false,ALTA
76,96,142.43,'DEPORTES',JULIO,9,true,BAJA
115,51,67.91,'HOGAR',MAYO,9,false,ALTA
103,10,95.97,'HOGAR',NOVIEMBRE,0,true,ALTA
72,37,145.04,'MODA',ENERO,8,true,MEDIA
28,88,115.17,'HOGAR',JULIO,7,true,MEDIA
86,35,11.39,'ALIMENTOS',MAYO,2,true,MEDIA
119,69,40.2,'ALIMENTOS',SEPTIEMBRE,1,false,ALTA
24,99,6.1,'ALIMENTOS',SEPTIEMBRE,3,false,BAJA
10,57,79.84,'ALIMENTOS',FEBRERO,8,true,BAJA
102,48,48.78,'MODA',AGOSTO,4,true,ALTA
28,100,10.17,'ALIMENTOS',MAYO,7,true,BAJA
147,26,42.32,'ALIMENTOS',NOVIEMBRE,9,true,ALTA
66,62,75.07,'DEPORTES',JULIO,1,false,MEDIA
24,93,142.13,'ELECTRONICA',JUNIO,10,true,BAJA
123,40,96.9,'DEPORTES',ENERO,8,true,ALTA
67,28,37.15,'DEPORTES',ABRIL,10,true,ALTA
96,78,33.5,'MODA',JUNIO,9,true,ALTA
147,41,80.73,'HOGAR',AGOSTO,0,true,ALTA
120,73,62.79,'MODA',DICIEMBRE,5,false,ALTA
88,94,20.57,'ALIMENTOS',DICIEMBRE,10,true,ALTA
91,49,149.49,'MODA',ABRIL,10,false,ALTA
89,32,28.88,'HOGAR',SEPTIEMBRE,1,true,ALTA
134,99,132.7,'DEPORTES',JULIO,6,true,ALTA
62,71,69.24,'ALIMENTOS',SEPTIEMBRE,10,true,MEDIA
27,46,96.01,'ELECTRONICA',OCTUBRE,10,true,BAJA
28,11,41.36,'ALIMENTOS',AGOSTO,10,true,BAJA
82,59,99.59,'HOGAR',DICIEMBRE,7,false,ALTA
3,82,123.53,'DEPORTES',ABRIL,9,true,BAJA
80,99,119.41,'ALIMENTOS',ABRIL,8,true,ALTA
76,90,110.71,'MODA',JUNIO,9,true,ALTA
22,44,124.32,'HOGAR',MARZO,10,true,BAJA
98,9,123.47,'ELECTRONICA',DICIEMBRE,5,false,ALTA
136,3,130.81,'HOGAR',AGOSTO,5,true,MEDIA
44,90,15.16,'MODA',JULIO,2,false,MEDIA
133,45,52.98,'ELECTRONICA',OCTUBRE,10,false,ALTA
112,49,30.85,'ALIMENTOS',JULIO,7,true,ALTA
116,69,86.67,'DEPORTES',MARZO,9,true,ALTA
113,52,37.9,'HOGAR',ENERO,8,false,ALTA
81,34,19.24,'ALIMENTOS',ABRIL,4,false,ALTA
100,76,35.43,'HOGAR',ABRIL,2,true,ALTA
87,39,37.34,'DEPORTES',JUNIO,10,false,ALTA
38,98,33.12,'DEPORTES',SEPTIEMBRE,8,true,MEDIA
33,73,101.11,'MODA',JULIO,1,false,MEDIA
71,3,89.77,'DEPORTES',FEBRERO,9,true,MEDIA
86,77,10.99,'ALIMENTOS',NOVIEMBRE,0,true,ALTA
124,42,58.54,'HOGAR',MAYO,7,true,ALTA
36,83,9.68,'DEPORTES',MARZO,3,true,ALTA
122,22,135.39,'DEPORTES',ENERO,0,true,ALTA
76,82,118.07,'HOGAR',ABRIL,9,false,ALTA
107,45,29.77,'MODA',SEPTIEMBRE,7,false,ALTA
52,61,92.38,'MODA',MARZO,8,false,MEDIA
25,38,98.5,'MODA',MAYO,7,false,BAJA
107,69,37.14,'MODA',DICIEMBRE,4,false,ALTA
16,44,141.09,'HOGAR',OCTUBRE,0,true,BAJA
28,1,55.72,'HOGAR',JUNIO,3,false,BAJA
65,27,131.56,'MODA',MARZO,4,true,MEDIA
66,57,24.59,'HOGAR',ABRIL,0,false,MEDIA
43,43,1.85,'DEPORTES',SEPTIEMBRE,0,true,MEDIA
146,76,121.77,'MODA',AGOSTO,8,true,ALTA
76,43,69.32,'HOGAR',DICIEMBRE,8,true,ALTA
136,56,56.55,'MODA',JULIO,4,false,ALTA
1,17,97.21,'DEPORTES',ENERO,8,true,BAJA
98,91,89.23,'ALIMENTOS',MAYO,3,false,ALTA
5,78,44.61,'ALIMENTOS',MARZO,10,false,BAJA
53,86,32.88,'DEPORTES',MARZO,0,false,MEDIA
39,37,52.06,'ELECTRONICA',NOVIEMBRE,4,true,MEDIA
69,5,76.68,'HOGAR',JUNIO,0,false,MEDIA
101,45,145.19,'HOGAR',JULIO,0,false,ALTA
114,3,81.76,'ELECTRONICA',DICIEMBRE,1,true,ALTA
132,4,51.34,'ELECTRONICA',FEBRERO,7,true,ALTA
45,84,93.38,'DEPORTES',JULIO,6,true,MEDIA
45,19,59.62,'MODA',OCTUBRE,5,false,BAJA
110,54,99.27,'MODA',FEBRERO,7,false,ALTA
25,13,56.54,'ELECTRONICA',SEPTIEMBRE,7,true,BAJA
20,18,141.65,'HOGAR',DICIEMBRE,10,false,BAJA
32,81,92.24,'DEPORTES',MARZO,5,true,MEDIA
14,29,40.5,'DEPORTES',MAYO,6,true,BAJA
80,54,66.98,'MODA',JUNIO,9,false,ALTA
121,36,4.24,'ALIMENTOS',ABRIL,1,false,ALTA
71,65,93.01,'MODA',JUNIO,10,false,MEDIA
136,89,116.95,'DEPORTES',MARZO,10,false,ALTA
96,15,88.18,'ELECTRONICA',AGOSTO,10,false,MEDIA
88,57,122.78,'DEPORTES',OCTUBRE,7,false,MEDIA
150,44,129.18,'HOGAR',AGOSTO,5,true,ALTA
65,84,12.06,'ALIMENTOS',JUNIO,5,false,MEDIA
39,34,54.33,'HOGAR',NOVIEMBRE,10,false,MEDIA
36,22,81.39,'DEPORTES',SEPTIEMBRE,9,false,MEDIA
20,97,79.13,'DEPORTES',ABRIL,6,true,BAJA
150,22,13.56,'HOGAR',NOVIEMBRE,3,true,BAJA
141,53,52.55,'ALIMENTOS',MARZO,0,false,ALTA
123,23,48.66,'MODA',DICIEMBRE,4,false,ALTA
32,51,28.3,'MODA',AGOSTO,7,false,ALTA
136,97,55.49,'HOGAR',SEPTIEMBRE,3,false,ALTA
72,100,132.69,'MODA',JUNIO,10,true,BAJA
38,28,100.66,'ELECTRONICA',AGOSTO,1,true,MEDIA
67,83,38.37,'ALIMENTOS',ENERO,8,true,MEDIA
105,53,49.51,'ELECTRONICA',MAYO,0,true,BAJA
147,94,96.79,'HOGAR',JUNIO,3,false,ALTA
93,33,116.93,'DEPORTES',NOVIEMBRE,1,false,ALTA
120,17,144.49,'ALIMENTOS',ENERO,5,false,ALTA
94,62,101.49,'ELECTRONICA',MARZO,7,false,ALTA
134,66,51.79,'ELECTRONICA',DICIEMBRE,5,false,ALTA
5,46,117.39,'ELECTRONICA',JUNIO,10,true,BAJA
0,12,1.26,'DEPORTES',NOVIEMBRE,0,true,BAJA
33,30,52.32,'DEPORTES',JULIO,10,false,MEDIA
120,14,100.0,'DEPORTES',AGOSTO,8,false,ALTA
117,36,40.16,'MODA',NOVIEMBRE,7,false,ALTA
81,28,127.99,'DEPORTES',MARZO,5,true,MEDIA
73,42,56.61,'ALIMENTOS',NOVIEMBRE,9,true,MEDIA
121,1,108.28,'DEPORTES',JULIO,2,false,ALTA
73,87,84.13,'ELECTRONICA',JUNIO,2,true,MEDIA
67,41,34.98,'ALIMENTOS',NOVIEMBRE,8,false,MEDIA
118,47,59.13,'ALIMENTOS',SEPTIEMBRE,4,true,ALTA
54,48,78.78,'ELECTRONICA',AGOSTO,1,true,MEDIA
7,58,108.3,'MODA',FEBRERO,3,false,BAJA
71,65,49.0,'HOGAR',AGOSTO,2,true,MEDIA
29,29,57.66,'ELECTRONICA',JUNIO,7,false,ALTA
43,22,88.33,'DEPORTES',JUNIO,1,true,MEDIA
31,58,61.66,'MODA',JULIO,1,false,MEDIA
140,98,128.52,'DEPORTES',ABRIL,9,true,ALTA
122,51,69.19,'DEPORTES',ENERO,8,true,ALTA
78,97,96.64,'MODA',DICIEMBRE,3,true,ALTA
106,36,80.77,'MODA',FEBRERO,9,false,ALTA
101,78,126.62,'HOGAR',DICIEMBRE,7,false,ALTA
69,6,85.95,'MODA',SEPTIEMBRE,10,true,MEDIA
54,55,4.75,'ALIMENTOS',SEPTIEMBRE,4,false,MEDIA
51,61,39.99,'ALIMENTOS',OCTUBRE,8,false,MEDIA
10,58,74.42,'MODA',DICIEMBRE,10,false,MEDIA
148,40,23.16,'MODA',DICIEMBRE,9,true,MEDIA
44,15,133.12,'HOGAR',OCTUBRE,10,true,MEDIA
97,65,86.33,'MODA',DICIEMBRE,8,true,ALTA
40,34,123.77,'ELECTRONICA',DICIEMBRE,6,true,MEDIA
15,29,93.77,'DEPORTES',OCTUBRE,1,false,BAJA
100,56,126.49,'MODA',JUNIO,1,true,ALTA
97,47,2.93,'HOGAR',JUNIO,4,false,BAJA
99,20,47.66,'DEPORTES',FEBRERO,3,true,ALTA
88,58,3.25,'ALIMENTOS',OCTUBRE,10,false,ALTA
37,81,14.19,'ELECTRONICA',DICIEMBRE,8,false,MEDIA
23,96,114.96,'ELECTRONICA',ENERO,1,true,BAJA
119,45,66.95,'ALIMENTOS',SEPTIEMBRE,9,false,ALTA
5,16,60.46,'HOGAR',MARZO,0,false,BAJA
63,94,31.11,'MODA',ENERO,5,true,MEDIA
71,5,52.47,'MODA',JULIO,1,true,MEDIA
22,28,102.04,'DEPORTES',SEPTIEMBRE,0,false,BAJA
64,20,45.99,'HOGAR',NOVIEMBRE,2,true,MEDIA
17,54,105.25,'HOGAR',NOVIEMBRE,8,true,BAJA
54,93,101.06,'MODA',JUNIO,4,true,MEDIA
144,41,97.11,'MODA',SEPTIEMBRE,2,true,ALTA
79,42,35.57,'DEPORTES',JUNIO,2,true,ALTA
77,58,4.68,'ELECTRONICA',NOVIEMBRE,3,true,ALTA
129,40,82.22,'DEPORTES',FEBRERO,1,false,ALTA
6,68,9.22,'DEPORTES',SEPTIEMBRE,6,true,BAJA
11,89,34.22,'HOGAR',ABRIL,0,false,BAJA
118,77,147.94,'MODA',AGOSTO,6,true,MEDIA
122,100,143.69,'DEPORTES',NOVIEMBRE,5,false,MEDIA
49,58,38.42,'MODA',ABRIL,0,false,BAJA
65,57,139.88,'ALIMENTOS',MARZO,3,false,MEDIA
76,69,10.71,'ELECTRONICA',DICIEMBRE,10,true,BAJA
136,14,36.7,'MODA',AGOSTO,0,true,ALTA
31,72,101.02,'ALIMENTOS',FEBRERO,5,true,MEDIA
46,66,19.27,'ALIMENTOS',JUNIO,3,false,MEDIA
51,82,40.52,'DEPORTES',SEPTIEMBRE,3,true,BAJA
23,0,12.38,'ELECTRONICA',NOVIEMBRE,2,false,BAJA
46,60,107.46,'ELECTRONICA',MAYO,9,false,ALTA
71,66,51.61,'HOGAR',NOVIEMBRE,7,false,MEDIA
108,53,30.51,'DEPORTES',JULIO,7,true,ALTA
72,28,136.26,'HOGAR',OCTUBRE,8,false,MEDIA
61,34,10.75,'ELECTRONICA',OCTUBRE,10,false,MEDIA
37,92,87.31,'ALIMENTOS',AGOSTO,6,false,MEDIA
9,32,87.13,'DEPORTES',FEBRERO,9,false,BAJA
82,1,93.19,'ELECTRONICA',OCTUBRE,9,false,ALTA
51,84,127.25,'MODA',NOVIEMBRE,0,false,MEDIA
91,46,76.18,'ELECTRONICA',MAYO,10,false,ALTA
35,98,10.72,'DEPORTES',ENERO,10,true,MEDIA
49,39,124.53,'DEPORTES',NOVIEMBRE,7,true,MEDIA
98,73,96.26,'MODA',AGOSTO,2,true,ALTA
131,31,48.14,'ELECTRONICA',AGOSTO,5,true,ALTA
78,71,81.05,'MODA',MARZO,10,true,ALTA
70,79,130.12,'DEPORTES',MARZO,10,false,MEDIA
129,48,113.24,'MODA',ENERO,8,false,ALTA
42,32,6.44,'DEPORTES',MAYO,5,false,MEDIA
71,97,126.2,'DEPORTES',SEPTIEMBRE,0,false,MEDIA
84,40,98.86,'ALIMENTOS',AGOSTO,3,true,ALTA
111,14,36.04,'ELECTRONICA',MARZO,6,true,ALTA
41,21,143.32,'MODA',NOVIEMBRE,2,false,MEDIA
7,71,20.37,'MODA',JUNIO,10,false,BAJA
23,66,116.59,'DEPORTES',ENERO,1,false,BAJA
4,15,107.53,'ALIMENTOS',SEPTIEMBRE,6,false,BAJA
58,99,30.04,'DEPORTES',DICIEMBRE,6,true,MEDIA
75,83,100.58,'ELECTRONICA',MAYO,2,true,ALTA
82,86,95.01,'ELECTRONICA',JUNIO,6,false,ALTA
106,56,21.02,'MODA',OCTUBRE,6,true,ALTA
126,26,121.59,'DEPORTES',DICIEMBRE,4,false,ALTA
77,68,42.06,'ELECTRONICA',JULIO,8,true,MEDIA
148,74,105.15,'ALIMENTOS',JULIO,9,false,ALTA
113,62,106.16,'ELECTRONICA',JULIO,0,true,ALTA
55,19,26.24,'DEPORTES',JUNIO,4,false,BAJA
59,42,80.97,'ELECTRONICA',DICIEMBRE,6,true,MEDIA
21,77,81.19,'HOGAR',ABRIL,9,false,BAJA
0,71,120.38,'HOGAR',AGOSTO,5,true,BAJA
24,87,132.59,'ALIMENTOS',JULIO,5,false,ALTA
30,52,84.74,'MODA',ENERO,5,false,MEDIA
117,16,101.04,'DEPORTES',ABRIL,7,false,ALTA
49,51,79.96,'ALIMENTOS',NOVIEMBRE,1,true,MEDIA
25,8,134.42,'HOGAR',JUNIO,5,true,BAJA
121,90,99.68,'MODA',JUNIO,6,false,ALTA
149,24,69.98,'HOGAR',MAYO,2,false,ALTA
47,14,112.26,'ELECTRONICA',NOVIEMBRE,0,true,BAJA
67,100,17.46,'MODA',MAYO,8,false,MEDIA
82,55,96.59,'DEPORTES',NOVIEMBRE,10,false,ALTA
142,46,141.48,'DEPORTES',MARZO,3,true,ALTA
46,64,145.84,'ALIMENTOS',ABRIL,9,false,MEDIA
120,55,123.5,'ALIMENTOS',OCTUBRE,8,true,ALTA
94,81,129.48,'DEPORTES',MAYO,6,true,ALTA
11,59,94.04,'HOGAR',JULIO,5,false,BAJA
107,7,104.41,'ALIMENTOS',MAYO,6,true,ALTA
142,62,41.33,'ELECTRONICA',ENERO,2,true,ALTA
72,7,50.59,'HOGAR',JULIO,5,true,MEDIA
134,70,127.74,'MODA',MARZO,3,true,ALTA
20,95,78.89,'ALIMENTOS',MARZO,10,true,BAJA
37,66,3.98,'MODA',OCTUBRE,2,true,MEDIA
148,13,19.79,'HOGAR',FEBRERO,5,true,ALTA
21,37,84.3,'HOGAR',OCTUBRE,2,false,BAJA
46,42,139.92,'ALIMENTOS',NOVIEMBRE,0,true,ALTA
36,63,4.12,'ELECTRONICA',AGOSTO,8,true,MEDIA
75,93,38.49,'MODA',OCTUBRE,6,false,ALTA
80,26,53.49,'MODA',OCTUBRE,4,false,ALTA
104,82,46.75,'DEPORTES',JULIO,0,false,ALTA
13,55,1.14,'HOGAR',JULIO,7,true,BAJA
99,59,110.6,'HOGAR',ENERO,3,false,ALTA
23,31,53.98,'ELECTRONICA',JUNIO,0,false,BAJA
43,11,98.76,'ELECTRONICA',MAYO,10,true,MEDIA
146,37,142.24,'HOGAR',MAYO,10,true,ALTA
110,67,100.19,'MODA',FEBRERO,0,false,ALTA
35,14,99.12,'DEPORTES',SEPTIEMBRE,2,false,BAJA
73,66,135.51,'HOGAR',JULIO,9,true,MEDIA
49,60,89.53,'DEPORTES',OCTUBRE,2,false,MEDIA
53,78,105.3,'ELECTRONICA',DICIEMBRE,9,false,MEDIA
94,80,2.85,'HOGAR',ABRIL,8,false,ALTA
77,68,95.94,'ALIMENTOS',DICIEMBRE,8,true,ALTA
131,67,3.38,'ELECTRONICA',MAYO,10,true,ALTA
23,58,51.68,'DEPORTES',MARZO,8,false,BAJA
70,48,70.33,'ALIMENTOS',NOVIEMBRE,6,false,MEDIA
40,61,85.93,'ALIMENTOS',DICIEMBRE,2,true,MEDIA
81,50,93.9,'ELECTRONICA',MARZO,4,false,ALTA
145,76,79.23,'DEPORTES',AGOSTO,0,true,ALTA
6,22,7.7,'ELECTRONICA',MAYO,7,true,BAJA
115,96,112.85,'DEPORTES',JUNIO,7,true,ALTA
13,29,72.59,'MODA',ABRIL,4,false,BAJA
150,34,86.38,'MODA',MARZO,0,false,ALTA
52,94,74.4,'MODA',SEPTIEMBRE,1,false,MEDIA
104,35,39.17,'ALIMENTOS',SEPTIEMBRE,7,false,ALTA
24,30,73.52,'MODA',ENERO,3,false,BAJA
130,69,147.14,'DEPORTES',NOVIEMBRE,2,true,BAJA
121,22,8.11,'HOGAR',JULIO,2,false,ALTA
38,79,78.86,'MODA',SEPTIEMBRE,2,true,MEDIA
95,80,62.73,'HOGAR',SEPTIEMBRE,1,false,ALTA
120,91,146.31,'DEPORTES',SEPTIEMBRE,7,true,ALTA
41,78,39.18,'ELECTRONICA',MAYO,0,true,MEDIA
130,22,21.11,'ALIMENTOS',ABRIL,10,false,ALTA
68,71,29.33,'MODA',FEBRERO,4,true,BAJA
69,65,58.92,'MODA',DICIEMBRE,2,true,MEDIA
34,28,15.74,'ELECTRONICA',NOVIEMBRE,0,true,MEDIA
34,100,4.15,'HOGAR',NOVIEMBRE,6,true,MEDIA
78,45,148.1,'HOGAR',AGOSTO,2,false,MEDIA
147,95,15.91,'MODA',OCTUBRE,7,true,ALTA
115,13,52.58,'ALIMENTOS',JUNIO,7,false,ALTA
21,27,67.19,'HOGAR',AGOSTO,8,true,BAJA
18,57,36.76,'ALIMENTOS',MAYO,6,false,BAJA
21,72,38.81,'ALIMENTOS',OCTUBRE,10,false,MEDIA
133,88,104.45,'HOGAR',FEBRERO,6,true,MEDIA
146,78,118.44,'DEPORTES',OCTUBRE,9,true,ALTA
69,7,44.54,'MODA',MARZO,0,true,MEDIA
100,72,41.45,'DEPORTES',NOVIEMBRE,3,false,BAJA
27,47,133.8,'ELECTRONICA',FEBRERO,5,false,BAJA
117,29,64.13,'MODA',ABRIL,6,true,ALTA
59,90,30.41,'ALIMENTOS',ABRIL,3,true,MEDIA
45,35,123.41,'ALIMENTOS',MARZO,6,false,ALTA
5,34,19.35,'ELECTRONICA',ABRIL,8,false,BAJA
82,29,86.42,'HOGAR',MAYO,2,true,ALTA
59,28,14.47,'DEPORTES',AGOSTO,1,true,MEDIA
73,70,21.05,'DEPORTES',NOVIEMBRE,2,true,MEDIA
60,36,40.39,'ELECTRONICA',MARZO,5,false,MEDIA
62,75,34.34,'HOGAR',SEPTIEMBRE,2,true,MEDIA
86,96,100.68,'ELECTRONICA',SEPTIEMBRE,8,false,ALTA
4,22,23.7,'ELECTRONICA',AGOSTO,2,false,BAJA
12,64,125.52,'ALIMENTOS',OCTUBRE,9,true,MEDIA
11,7,35.28,'ELECTRONICA',MAYO,6,false,BAJA
147,98,11.92,'HOGAR',NOVIEMBRE,3,true,ALTA
130,92,131.1,'DEPORTES',FEBRERO,6,true,ALTA
112,55,104.34,'MODA',MAYO,8,false,ALTA
8,83,111.5,'DEPORTES',NOVIEMBRE,3,true,BAJA
68,64,38.57,'HOGAR',OCTUBRE,1,true,MEDIA
48,53,5.41,'ALIMENTOS',MARZO,7,false,MEDIA
133,63,101.22,'ALIMENTOS',AGOSTO,5,false,ALTA
25,26,75.98,'HOGAR',SEPTIEMBRE,9,false,BAJA
82,87,112.4,'HOGAR',SEPTIEMBRE,1,false,ALTA
25,4,67.02,'MODA',AGOSTO,0,false,BAJA
37,39,36.88,'MODA',FEBRERO,2,true,MEDIA
15,28,27.98,'MODA',MAYO,9,false,BAJA
5,84,45.55,'MODA',NOVIEMBRE,9,true,BAJA
17,74,114.22,'MODA',AGOSTO,10,true,BAJA
86,49,108.13,'MODA',NOVIEMBRE,0,true,ALTA
31,40,149.71,'ELECTRONICA',AGOSTO,4,false,MEDIA
60,0,72.22,'ALIMENTOS',JUNIO,10,true,MEDIA
102,90,31.87,'ELECTRONICA',MARZO,2,true,ALTA
37,61,113.94,'ELECTRONICA',ENERO,0,true,MEDIA
100,95,53.85,'HOGAR',MARZO,4,false,ALTA
69,43,123.34,'ELECTRONICA',FEBRERO,7,true,MEDIA
137,74,90.5,'ALIMENTOS',MARZO,10,false,ALTA
65,26,92.53,'DEPORTES',ABRIL,8,true,MEDIA
109,48,44.79,'MODA',OCTUBRE,9,false,MEDIA
114,85,127.99,'ALIMENTOS',JUNIO,2,true,ALTA
71,38,139.22,'ELECTRONICA',DICIEMBRE,7,false,MEDIA
36,45,122.29,'ALIMENTOS',AGOSTO,4,false,MEDIA
5,49,75.34,'ALIMENTOS',SEPTIEMBRE,5,true,BAJA
137,76,122.83,'ELECTRONICA',SEPTIEMBRE,2,true,ALTA
142,87,101.21,'HOGAR',ENERO,8,true,ALTA
54,13,33.68,'DEPORTES',AGOSTO,8,true,MEDIA
79,69,144.43,'DEPORTES',JULIO,6,true,ALTA
124,41,109.43,'MODA',FEBRERO,9,false,ALTA
40,63,14.89,'HOGAR',DICIEMBRE,6,false,BAJA
96,12,23.12,'DEPORTES',DICIEMBRE,0,false,ALTA
64,45,113.17,'HOGAR',ENERO,10,true,MEDIA
93,11,141.59,'ALIMENTOS',DICIEMBRE,7,true,ALTA
16,83,129.6,'ALIMENTOS',JULIO,5,false,ALTA
54,36,9.26,'HOGAR',SEPTIEMBRE,8,false,MEDIA
142,48,59.34,'DEPORTES',AGOSTO,9,false,ALTA
123,26,54.24,'MODA',ENERO,4,true,ALTA
112,14,95.33,'HOGAR',MAYO,10,true,ALTA
16,60,19.04,'ELECTRONICA',MARZO,4,true,MEDIA
14,100,28.74,'MODA',AGOSTO,8,false,BAJA
147,36,35.52,'ALIMENTOS',MARZO,1,true,BAJA
13,87,36.2,'ELECTRONICA',SEPTIEMBRE,5,true,BAJA
67,81,54.57,'DEPORTES',DICIEMBRE,1,true,BAJA
58,97,15.78,'ELECTRONICA',SEPTIEMBRE,7,true,MEDIA
28,8,25.05,'HOGAR',FEBRERO,8,false,BAJA
118,97,25.76,'DEPORTES',AGOSTO,0,false,ALTA
20,13,23.63,'ALIMENTOS',AGOSTO,1,false,BAJA
95,26,112.67,'DEPORTES',FEBRERO,7,true,BAJA
13,85,77.93,'ELECTRONICA',ENERO,4,false,MEDIA
41,47,96.74,'MODA',MAYO,6,false,MEDIA
88,3,45.98,'MODA',DICIEMBRE,10,true,ALTA
102,73,18.07,'HOGAR',DICIEMBRE,10,true,ALTA
14,21,12.71,'ELECTRONICA',DICIEMBRE,0,true,BAJA
65,66,37.91,'ALIMENTOS',ABRIL,5,false,MEDIA
120,15,14.64,'ELECTRONICA',NOVIEMBRE,9,false,ALTA
106,72,95.75,'HOGAR',ENERO,0,false,MEDIA
81,24,29.34,'ALIMENTOS',ABRIL,6,false,ALTA
107,95,96.94,'HOGAR',NOVIEMBRE,7,false,BAJA
135,100,97.07,'ELECTRONICA',DICIEMBRE,4,true,ALTA
100,6,66.44,'MODA',FEBRERO,7,false,ALTA
14,67,69.59,'ELECTRONICA',FEBRERO,8,false,BAJA
107,61,147.61,'ALIMENTOS',NOVIEMBRE,0,false,MEDIA
11,70,16.55,'ELECTRONICA',SEPTIEMBRE,5,true,BAJA
110,60,116.16,'MODA',NOVIEMBRE,5,false,ALTA
51,37,128.19,'DEPORTES',MAYO,2,true,ALTA
145,25,38.49,'HOGAR',JUNIO,5,false,ALTA
147,34,21.2,'DEPORTES',DICIEMBRE,10,true,ALTA
21,74,72.69,'DEPORTES',FEBRERO,9,false,BAJA
52,23,68.29,'ALIMENTOS',JUNIO,8,false,MEDIA
22,23,133.25,'DEPORTES',DICIEMBRE,8,true,BAJA
45,32,48.24,'ELECTRONICA',SEPTIEMBRE,10,false,MEDIA
15,77,13.89,'ELECTRONICA',SEPTIEMBRE,5,true,BAJA
107,88,107.92,'DEPORTES',AGOSTO,10,true,ALTA
96,48,146.99,'ELECTRONICA',NOVIEMBRE,9,true,ALTA
44,12,103.34,'DEPORTES',NOVIEMBRE,2,false,MEDIA
49,56,20.48,'ELECTRONICA',OCTUBRE,5,true,MEDIA
43,70,40.06,'HOGAR',ENERO,2,true,MEDIA
32,38,4.88,'DEPORTES',OCTUBRE,5,false,MEDIA
48,62,31.24,'ELECTRONICA',MARZO,2,true,ALTA
101,50,149.65,'ELECTRONICA',DICIEMBRE,2,false,ALTA
81,3,75.08,'ELECTRONICA',AGOSTO,2,false,ALTA
15,30,47.95,'ALIMENTOS',JULIO,1,false,BAJA
41,14,59.42,'DEPORTES',FEBRERO,1,true,MEDIA
33,61,84.63,'MODA',MAYO,10,true,MEDIA
12,81,49.52,'DEPORTES',JUNIO,5,true,BAJA
69,77,135.0,'DEPORTES',OCTUBRE,10,true,MEDIA
37,41,17.19,'DEPORTES',OCTUBRE,7,true,MEDIA
35,81,128.05,'ALIMENTOS',ABRIL,3,false,MEDIA
132,61,1.43,'ELECTRONICA',ENERO,8,false,ALTA
143,15,70.6,'DEPORTES',FEBRERO,7,false,ALTA
117,2,139.29,'DEPORTES',NOVIEMBRE,7,false,ALTA
120,6,90.5,'HOGAR',JUNIO,1,false,ALTA
52,73,43.22,'ALIMENTOS',ENERO,3,true,MEDIA
2,43,149.11,'ALIMENTOS',MARZO,1,true,BAJA
27,41,131.93,'MODA',ABRIL,3,false,BAJA
35,71,99.06,'ALIMENTOS',MARZO,10,false,MEDIA
113,25,107.18,'MODA',ABRIL,10,true,ALTA
5,7,13.01,'ALIMENTOS',ABRIL,9,false,MEDIA
122,45,105.47,'DEPORTES',FEBRERO,3,true,ALTA
137,94,21.26,'DEPORTES',SEPTIEMBRE,9,true,ALTA
102,14,23.41,'ALIMENTOS',MARZO,1,true,ALTA
60,80,42.03,'ELECTRONICA',ABRIL,6,true,MEDIA
31,39,137.79,'DEPORTES',NOVIEMBRE,1,false,MEDIA
19,47,91.0,'MODA',MAYO,5,false,BAJA
129,16,62.43,'MODA',SEPTIEMBRE,5,false,ALTA
25,6,55.85,'ALIMENTOS',JUNIO,9,true,BAJA
116,47,21.72,'DEPORTES',SEPTIEMBRE,6,true,ALTA
30,63,60.41,'HOGAR',MARZO,5,false,BAJA
85,30,149.27,'HOGAR',JULIO,7,false,ALTA
20,72,73.0,'DEPORTES',ABRIL,1,true,BAJA
56,20,67.34,'MODA',SEPTIEMBRE,3,false,MEDIA
18,47,148.97,'ALIMENTOS',ABRIL,8,true,BAJA
94,60,7.34,'ALIMENTOS',ABRIL,10,false,ALTA
59,57,68.36,'ELECTRONICA',SEPTIEMBRE,6,false,MEDIA
6,8,17.98,'HOGAR',ABRIL,3,true,BAJA
49,48,65.3,'ELECTRONICA',ENERO,5,true,MEDIA
64,27,5.34,'MODA',JULIO,8,false,MEDIA
23,52,147.86,'ELECTRONICA',MAYO,7,false,BAJA
150,66,106.03,'DEPORTES',JULIO,5,true,ALTA
59,64,73.15,'MODA',DICIEMBRE,2,true,MEDIA
105,51,132.75,'MODA',OCTUBRE,7,true,ALTA
83,42,121.54,'DEPORTES',ENERO,7,false,MEDIA
149,100,136.93,'DEPORTES',ENERO,3,true,BAJA
92,49,88.6,'ALIMENTOS',MARZO,5,true,ALTA
63,61,88.84,'DEPORTES',AGOSTO,7,true,ALTA
21,25,40.52,'HOGAR',ENERO,9,false,BAJA
37,31,123.84,'ALIMENTOS',JUNIO,6,false,MEDIA
25,38,54.72,'ALIMENTOS',JULIO,5,true,BAJA
98,9,92.52,'MODA',JULIO,1,true,ALTA
77,32,111.15,'ALIMENTOS',MAYO,2,true,ALTA
22,63,110.74,'HOGAR',ABRIL,1,true,BAJA
0,16,147.52,'DEPORTES',ABRIL,2,false,BAJA
36,64,51.45,'DEPORTES',FEBRERO,3,false,BAJA
56,58,11.39,'HOGAR',MARZO,5,false,MEDIA
61,51,100.8,'DEPORTES',OCTUBRE,9,false,MEDIA
150,91,8.39,'ELECTRONICA',OCTUBRE,2,true,ALTA
128,27,139.66,'ELECTRONICA',AGOSTO,1,true,ALTA
12,32,1.09,'ALIMENTOS',ENERO,7,true,BAJA
95,85,86.15,'MODA',DICIEMBRE,0,false,ALTA
76,38,52.22,'HOGAR',ENERO,6,false,ALTA
127,24,60.02,'ELECTRONICA',MAYO,5,false,ALTA
147,90,70.26,'ELECTRONICA',AGOSTO,5,false,ALTA
71,30,70.04,'DEPORTES',OCTUBRE,9,false,MEDIA
111,61,86.64,'HOGAR',ENERO,9,true,ALTA
89,12,119.96,'DEPORTES',OCTUBRE,7,true,ALTA
69,28,73.31,'HOGAR',DICIEMBRE,3,false,MEDIA
3,64,27.51,'ELECTRONICA',MARZO,10,false,BAJA
79,56,40.52,'ELECTRONICA',DICIEMBRE,1,false,ALTA
121,67,88.34,'ELECTRONICA',JULIO,9,true,ALTA
57,77,22.3,'ELECTRONICA',MAYO,5,false,MEDIA
17,38,14.5,'HOGAR',MARZO,9,false,BAJA
102,4,80.4,'DEPORTES',JUNIO,9,true,ALTA
128,87,63.2,'MODA',MARZO,3,true,ALTA
124,66,132.99,'MODA',AGOSTO,5,false,ALTA
76,13,27.62,'MODA',ABRIL,4,true,ALTA
65,8,65.99,'DEPORTES',MARZO,2,false,MEDIA
120,80,13.5,'HOGAR',ENERO,0,true,ALTA
127,78,118.55,'HOGAR',ABRIL,1,true,ALTA
111,63,145.08,'MODA',FEBRERO,3,true,ALTA
88,63,147.55,'ALIMENTOS',JULIO,10,false,ALTA
138,90,91.87,'ELECTRONICA',NOVIEMBRE,8,true,ALTA
45,6,96.55,'DEPORTES',DICIEMBRE,0,true,MEDIA
98,53,89.08,'MODA',DICIEMBRE,3,true,ALTA
107,0,60.37,'ALIMENTOS',FEBRERO,3,false,ALTA
68,56,32.97,'ELECTRONICA',OCTUBRE,1,true,MEDIA
135,35,67.46,'MODA',MAYO,1,true,ALTA
93,37,59.67,'ELECTRONICA',ABRIL,2,false,ALTA
33,99,88.59,'ELECTRONICA',OCTUBRE,0,false,MEDIA
6,40,52.12,'ELECTRONICA',SEPTIEMBRE,3,false,BAJA
85,51,20.29,'MODA',NOVIEMBRE,1,true,MEDIA
71,10,112.47,'ALIMENTOS',FEBRERO,9,false,MEDIA
14,87,6.11,'ALIMENTOS',NOVIEMBRE,2,true,BAJA
102,48,105.09,'HOGAR',SEPTIEMBRE,8,true,ALTA
50,64,49.46,'MODA',ENERO,4,true,MEDIA
2,13,124.62,'DEPORTES',FEBRERO,9,false,BAJA
65,55,135.02,'ELECTRONICA',OCTUBRE,1,true,MEDIA
13,44,99.09,'HOGAR',SEPTIEMBRE,0,true,BAJA
54,82,140.67,'ELECTRONICA',AGOSTO,1,true,MEDIA
8,38,93.9,'ALIMENTOS',ABRIL,3,true,BAJA
118,77,97.97,'ELECTRONICA',JULIO,4,true,ALTA
120,66,105.34,'ALIMENTOS',AGOSTO,3,false,ALTA
149,0,75.03,'ELECTRONICA',JULIO,7,false,BAJA
78,62,84.88,'ALIMENTOS',FEBRERO,8,false,ALTA
145,100,53.51,'MODA',FEBRERO,0,false,ALTA
30,70,92.6,'HOGAR',OCTUBRE,2,false,MEDIA
116,53,14.22,'DEPORTES',JULIO,8,false,ALTA
122,1,13.16,'MODA',NOVIEMBRE,5,false,ALTA
135,7,97.24,'HOGAR',MARZO,10,true,ALTA
115,53,65.02,'DEPORTES',ENERO,4,true,ALTA
71,83,55.85,'ELECTRONICA',SEPTIEMBRE,2,true,MEDIA
28,58,41.29,'DEPORTES',MAYO,6,false,BAJA
110,42,115.57,'DEPORTES',ABRIL,9,false,MEDIA
129,33,122.88,'HOGAR',JUNIO,9,true,BAJA
3,10,91.05,'MODA',NOVIEMBRE,5,true,BAJA
17,59,8.23,'MODA',MARZO,5,true,ALTA
112,50,77.06,'HOGAR',NOVIEMBRE,3,false,ALTA
142,10,142.8,'HOGAR',FEBRERO,6,true,ALTA
19,85,28.15,'DEPORTES',MARZO,3,true,BAJA
138,47,36.02,'HOGAR',DICIEMBRE,8,false,ALTA
96,21,128.12,'ALIMENTOS',OCTUBRE,10,true,ALTA
29,25,65.72,'ELECTRONICA',ENERO,10,false,BAJA
42,99,28.23,'ALIMENTOS',MARZO,10,true,MEDIA
71,75,29.29,'ALIMENTOS',FEBRERO,0,false,MEDIA
73,47,81.08,'HOGAR',JUNIO,0,false,MEDIA
82,91,110.74,'ALIMENTOS',MARZO,9,false,ALTA
133,78,69.0,'ALIMENTOS',MARZO,4,true,ALTA
89,2,149.86,'MODA',NOVIEMBRE,5,true,ALTA
44,7,126.48,'HOGAR',MAYO,3,false,MEDIA
99,2,53.63,'DEPORTES',NOVIEMBRE,3,false,MEDIA
53,30,115.85,'ALIMENTOS',MARZO,0,true,MEDIA
140,90,33.15,'ELECTRONICA',JULIO,0,true,ALTA
8,40,118.13,'DEPORTES',OCTUBRE,1,false,BAJA
100,59,92.37,'DEPORTES',NOVIEMBRE,5,true,ALTA
148,21,38.13,'HOGAR',FEBRERO,1,false,ALTA
41,92,136.63,'MODA',ENERO,5,true,MEDIA
66,22,85.2,'ALIMENTOS',NOVIEMBRE,1,true,MEDIA
100,15,20.89,'MODA',AGOSTO,2,true,ALTA
30,94,86.88,'ELECTRONICA',ABRIL,9,true,MEDIA
12,63,136.11,'DEPORTES',SEPTIEMBRE,6,false,BAJA
106,40,50.88,'ELECTRONICA',ABRIL,7,true,ALTA
97,37,112.37,'DEPORTES',OCTUBRE,7,false,ALTA
10,20,94.72,'HOGAR',OCTUBRE,8,false,ALTA
23,15,101.1,'DEPORTES',AGOSTO,6,false,BAJA
137,44,132.58,'HOGAR',DICIEMBRE,0,false,ALTA
113,18,100.46,'MODA',SEPTIEMBRE,1,true,ALTA
21,55,95.45,'DEPORTES',DICIEMBRE,0,false,MEDIA
17,70,78.89,'ALIMENTOS',ENERO,5,false,BAJA
106,6,135.72,'ELECTRONICA',SEPTIEMBRE,9,true,ALTA
6,45,92.19,'DEPORTES',MAYO,6,true,BAJA
114,1,85.37,'ELECTRONICA',MARZO,9,true,ALTA
43,74,62.76,'ALIMENTOS',JULIO,9,true,MEDIA
107,88,20.62,'ELECTRONICA',ABRIL,4,false,ALTA
93,75,49.31,'MODA',MARZO,9,false,ALTA
100,41,101.47,'ELECTRONICA',MAYO,2,true,ALTA
111,50,11.86,'HOGAR',ENERO,3,false,ALTA
123,83,106.99,'HOGAR',AGOSTO,6,true,ALTA
4,73,46.93,'ELECTRONICA',JUNIO,8,false,MEDIA
94,68,19.3,'MODA',ENERO,1,true,ALTA
110,62,12.68,'ALIMENTOS',FEBRERO,1,true,MEDIA
132,88,124.7,'DEPORTES',AGOSTO,6,false,ALTA
21,83,25.6,'MODA',FEBRERO,1,false,BAJA
16,33,72.09,'MODA',SEPTIEMBRE,6,true,BAJA
141,31,42.75,'MODA',FEBRERO,8,false,ALTA
137,38,73.06,'DEPORTES',DICIEMBRE,0,false,ALTA
92,10,79.82,'HOGAR',JUNIO,6,false,ALTA
73,51,71.11,'ALIMENTOS',OCTUBRE,6,false,MEDIA
134,22,78.07,'ELECTRONICA',AGOSTO,4,false,BAJA
23,29,119.84,'DEPORTES',MAYO,2,false,BAJA
83,76,96.37,'ALIMENTOS',OCTUBRE,2,false,ALTA
67,14,96.49,'HOGAR',AGOSTO,3,false,MEDIA
38,26,81.24,'HOGAR',MAYO,6,true,MEDIA
95,20,126.45,'ALIMENTOS',ENERO,2,true,ALTA
148,88,60.61,'ALIMENTOS',AGOSTO,10,false,ALTA
126,83,86.8,'ELECTRONICA',MAYO,3,false,MEDIA
139,95,25.9,'ELECTRONICA',FEBRERO,3,false,ALTA
39,84,60.72,'DEPORTES',OCTUBRE,4,true,MEDIA
133,0,145.6,'HOGAR',NOVIEMBRE,8,true,ALTA
4,4,7.23,'ELECTRONICA',MAYO,7,true,BAJA
33,77,94.81,'ELECTRONICA',ENERO,2,true,MEDIA
89,57,20.66,'MODA',MAYO,5,false,ALTA
65,64,76.05,'HOGAR',DICIEMBRE,8,true,MEDIA
90,26,96.57,'MODA',MAYO,0,true,ALTA
107,64,7.91,'DEPORTES',ENERO,1,false,ALTA
40,48,17.82,'MODA',NOVIEMBRE,5,true,MEDIA
54,32,102.22,'ELECTRONICA',NOVIEMBRE,7,false,MEDIA
21,22,82.56,'MODA',ENERO,10,true,MEDIA
11,62,133.34,'HOGAR',ABRIL,3,false,BAJA
20,80,82.27,'HOGAR',FEBRERO,9,true,BAJA
40,40,61.6,'ELECTRONICA',AGOSTO,0,true,MEDIA
83,61,131.82,'DEPORTES',MAYO,5,false,ALTA
64,97,139.0,'MODA',DICIEMBRE,10,true,MEDIA
145,48,76.14,'DEPORTES',SEPTIEMBRE,3,true,ALTA
40,49,60.82,'MODA',MAYO,0,false,BAJA
92,5,26.94,'ALIMENTOS',OCTUBRE,8,false,ALTA
90,92,19.53,'DEPORTES',JUNIO,2,false,ALTA
108,97,92.01,'DEPORTES',NOVIEMBRE,8,false,ALTA
114,68,51.57,'MODA',SEPTIEMBRE,7,true,ALTA
117,89,7.98,'ELECTRONICA',JUNIO,10,true,MEDIA
142,22,50.27,'MODA',FEBRERO,5,true,ALTA
105,73,60.59,'ELECTRONICA',ENERO,5,true,MEDIA
134,35,93.51,'MODA',FEBRERO,7,false,ALTA
100,67,132.89,'MODA',ENERO,7,true,ALTA
146,89,76.57,'DEPORTES',JULIO,7,false,ALTA
58,93,80.51,'HOGAR',FEBRERO,2,false,MEDIA
32,28,93.48,'ALIMENTOS',SEPTIEMBRE,5,false,MEDIA
102,59,89.92,'ALIMENTOS',MARZO,8,false,ALTA
4,23,61.02,'ALIMENTOS',ENERO,8,true,BAJA
70,99,140.07,'DEPORTES',DICIEMBRE,8,true,MEDIA
142,8,48.42,'ELECTRONICA',NOVIEMBRE,9,true,ALTA
14,8,117.99,'ALIMENTOS',DICIEMBRE,6,false,BAJA
127,13,125.54,'MODA',JUNIO,3,true,ALTA
113,55,125.78,'MODA',MAYO,7,true,ALTA
116,86,33.76,'HOGAR',JULIO,6,true,ALTA
61,82,73.35,'MODA',AGOSTO,5,true,MEDIA
134,56,78.86,'MODA',ABRIL,3,false,ALTA
34,71,115.95,'DEPORTES',MARZO,2,true,MEDIA
86,1,106.28,'MODA',JUNIO,9,true,BAJA
97,23,119.08,'ALIMENTOS',JUNIO,6,true,ALTA
124,84,34.37,'ELECTRONICA',MAYO,7,true,ALTA
21,58,106.74,'ALIMENTOS',ENERO,2,true,BAJA
61,24,21.72,'ELECTRONICA',AGOSTO,1,true,BAJA
130,88,68.54,'HOGAR',FEBRERO,10,true,ALTA
38,28,24.07,'MODA',MARZO,3,true,MEDIA
36,96,35.72,'DEPORTES',MAYO,9,true,MEDIA
56,72,47.76,'DEPORTES',FEBRERO,0,true,MEDIA
107,44,97.17,'ALIMENTOS',FEBRERO,8,true,ALTA
140,10,120.47,'ELECTRONICA',ABRIL,1,true,ALTA
114,13,55.42,'DEPORTES',SEPTIEMBRE,0,true,ALTA
35,99,137.65,'ELECTRONICA',JUNIO,5,false,MEDIA
62,76,100.17,'ELECTRONICA',OCTUBRE,8,true,MEDIA
117,13,149.23,'HOGAR',DICIEMBRE,1,true,ALTA
33,65,39.13,'MODA',AGOSTO,4,false,MEDIA
79,10,31.53,'ELECTRONICA',JULIO,6,false,ALTA
36,74,58.08,'MODA',JUNIO,8,true,MEDIA
56,90,78.2,'ALIMENTOS',JUNIO,3,false,MEDIA
101,28,37.72,'DEPORTES',OCTUBRE,0,true,BAJA
40,59,56.67,'HOGAR',JUNIO,6,false,BAJA
84,82,84.86,'ELECTRONICA',AGOSTO,10,true,BAJA
63,89,43.49,'MODA',MAYO,2,true,MEDIA
104,37,4.04,'MODA',JULIO,1,true,ALTA
145,3,116.52,'HOGAR',NOVIEMBRE,10,false,ALTA
108,2,21.32,'MODA',JUNIO,3,true,ALTA
129,35,100.31,'MODA',ABRIL,3,false,ALTA
99,94,42.69,'HOGAR',ENERO,2,false,ALTA
100,70,5.93,'MODA',JUNIO,5,true,ALTA
57,1,10.59,'ALIMENTOS',JUNIO,8,true,MEDIA
37,81,25.24,'ALIMENTOS',DICIEMBRE,2,true,MEDIA
58,71,75.26,'MODA',ENERO,8,false,MEDIA
92,17,32.35,'HOGAR',ENERO,10,true,ALTA
56,23,70.5,'MODA',FEBRERO,10,false,MEDIA
20,54,110.92,'ELECTRONICA',DICIEMBRE,7,false,BAJA
4,28,136.17,'ELECTRONICA',MARZO,9,false,BAJA
143,56,122.24,'ELECTRONICA',DICIEMBRE,6,false,ALTA
27,60,124.08,'HOGAR',NOVIEMBRE,1,true,BAJA
106,79,135.37,'HOGAR',ENERO,6,true,MEDIA
40,2,11.74,'ALIMENTOS',MARZO,1,true,MEDIA
114,5,67.0,'ALIMENTOS',MARZO,3,false,ALTA
3,26,50.47,'ALIMENTOS',JUNIO,7,false,ALTA
87,47,144.25,'HOGAR',OCTUBRE,7,true,ALTA
30,7,59.74,'ELECTRONICA',OCTUBRE,5,true,MEDIA
112,51,140.89,'DEPORTES',ENERO,4,true,ALTA
100,87,12.36,'ELECTRONICA',DICIEMBRE,2,false,ALTA
15,95,69.98,'ALIMENTOS',ABRIL,8,true,BAJA
5,85,16.65,'DEPORTES',ENERO,10,true,BAJA
77,32,113.34,'ELECTRONICA',FEBRERO,9,true,ALTA
139,55,30.85,'DEPORTES',DICIEMBRE,1,true,ALTA
144,5,126.3,'DEPORTES',JULIO,0,true,ALTA
80,67,5.13,'ALIMENTOS',FEBRERO,1,false,ALTA
106,78,112.8,'HOGAR',FEBRERO,8,false,ALTA
59,12,50.27,'HOGAR',MAYO,2,false,MEDIA
129,17,134.02,'ELECTRONICA',ENERO,3,false,MEDIA
13,14,4.26,'MODA',ABRIL,9,false,BAJA
68,19,71.49,'ELECTRONICA',ABRIL,8,true,MEDIA
137,90,143.54,'ALIMENTOS',MARZO,0,true,ALTA
90,28,91.89,'DEPORTES',MAYO,0,false,ALTA
121,10,15.39,'DEPORTES',DICIEMBRE,1,true,ALTA
87,90,139.11,'HOGAR',JULIO,4,true,ALTA
36,66,62.93,'ELECTRONICA',ABRIL,10,false,MEDIA
42,80,98.49,'MODA',AGOSTO,4,false,MEDIA
20,96,63.79,'HOGAR',FEBRERO,1,false,BAJA
110,36,90.42,'ELECTRONICA',JUNIO,2,true,ALTA
150,4,33.79,'ALIMENTOS',OCTUBRE,8,false,MEDIA
95,79,35.25,'ALIMENTOS',NOVIEMBRE,8,false,ALTA
75,5,43.56,'ALIMENTOS',DICIEMBRE,0,true,ALTA
60,25,141.6,'ALIMENTOS',MAYO,0,true,MEDIA
129,32,3.24,'ELECTRONICA',FEBRERO,1,false,ALTA
125,2,28.25,'DEPORTES',SEPTIEMBRE,0,false,ALTA
20,54,139.59,'ELECTRONICA',JUNIO,6,false,BAJA
78,74,21.26,'DEPORTES',DICIEMBRE,5,true,ALTA
20,88,15.88,'MODA',NOVIEMBRE,1,false,BAJA
87,59,7.28,'DEPORTES',ABRIL,7,true,ALTA
109,92,21.42,'ELECTRONICA',MAYO,9,true,ALTA
103,90,74.11,'ALIMENTOS',SEPTIEMBRE,0,true,ALTA
107,16,91.96,'ALIMENTOS',JUNIO,5,false,ALTA
120,71,128.36,'ALIMENTOS',ABRIL,10,true,ALTA
128,82,110.82,'MODA',JUNIO,1,false,BAJA
0,35,20.2,'HOGAR',OCTUBRE,1,false,BAJA
149,15,132.34,'ALIMENTOS',AGOSTO,0,true,ALTA
52,5,22.3,'HOGAR',JUNIO,8,false,MEDIA
53,43,41.17,'ALIMENTOS',JULIO,7,true,MEDIA
130,25,80.07,'ALIMENTOS',ENERO,5,false,ALTA
7,52,127.61,'DEPORTES',SEPTIEMBRE,2,false,BAJA
101,67,62.37,'ALIMENTOS',MAYO,8,false,ALTA
77,35,28.22,'ALIMENTOS',JULIO,1,false,ALTA
33,43,125.55,'DEPORTES',SEPTIEMBRE,5,true,MEDIA
21,59,126.03,'ALIMENTOS',AGOSTO,4,false,BAJA
29,50,101.4,'DEPORTES',OCTUBRE,2,true,BAJA
83,76,56.27,'HOGAR',NOVIEMBRE,2,false,ALTA
35,21,104.73,'MODA',ABRIL,1,true,MEDIA
26,74,117.59,'ELECTRONICA',DICIEMBRE,2,false,BAJA
29,24,87.3,'ALIMENTOS',OCTUBRE,1,false,BAJA
105,45,20.92,'DEPORTES',ENERO,1,true,ALTA
61,75,149.36,'DEPORTES',JULIO,4,false,MEDIA
39,19,76.63,'HOGAR',MARZO,3,false,MEDIA
2,27,14.0,'ALIMENTOS',NOVIEMBRE,8,false,BAJA
63,2,2.4,'DEPORTES',JUNIO,9,true,MEDIA
21,4,52.05,'DEPORTES',AGOSTO,7,true,BAJA
147,72,140.79,'ELECTRONICA',FEBRERO,9,true,ALTA
131,87,3.44,'DEPORTES',ENERO,7,true,ALTA
47,72,45.56,'HOGAR',ABRIL,1,true,MEDIA
108,35,22.67,'HOGAR',ABRIL,7,true,ALTA
6,63,32.07,'DEPORTES',OCTUBRE,4,true,BAJA
67,61,68.91,'DEPORTES',JULIO,5,true,MEDIA
97,87,132.61,'DEPORTES',JUNIO,3,false,ALTA
63,69,146.94,'HOGAR',JUNIO,0,true,BAJA
96,93,79.31,'HOGAR',SEPTIEMBRE,3,false,ALTA
56,10,99.74,'ALIMENTOS',AGOSTO,7,true,MEDIA
72,21,38.82,'HOGAR',JULIO,1,true,MEDIA
12,62,39.12,'MODA',MARZO,1,true,BAJA
149,74,81.2,'ELECTRONICA',OCTUBRE,0,true,ALTA
37,74,34.8,'MODA',SEPTIEMBRE,3,false,MEDIA
30,89,124.81,'ELECTRONICA',ABRIL,7,false,MEDIA
108,17,54.19,'HOGAR',JULIO,9,false,MEDIA
93,41,29.82,'ALIMENTOS',JUNIO,1,false,ALTA
86,27,87.5,'HOGAR',MAYO,1,false,ALTA
3,17,74.51,'DEPORTES',JUNIO,6,false,ALTA
21,30,114.52,'DEPORTES',ENERO,7,false,BAJA
93,8,148.15,'MODA',ABRIL,7,true,ALTA
14,41,147.71,'ALIMENTOS',JUNIO,2,true,MEDIA
106,68,111.55,'HOGAR',MARZO,1,false,ALTA
28,55,112.8,'ELECTRONICA',FEBRERO,9,true,BAJA
94,73,78.21,'ALIMENTOS',ENERO,10,true,ALTA
57,52,143.72,'ALIMENTOS',OCTUBRE,7,false,BAJA
132,35,115.79,'DEPORTES',ENERO,6,false,ALTA
66,22,67.11,'MODA',NOVIEMBRE,4,false,MEDIA
128,73,148.88,'DEPORTES',JUNIO,2,false,ALTA
99,91,59.76,'MODA',ABRIL,3,false,ALTA
74,89,104.6,'MODA',MARZO,10,false,MEDIA
18,81,42.34,'MODA',MARZO,3,true,ALTA
137,24,80.81,'ALIMENTOS',AGOSTO,5,true,BAJA
96,14,50.0,'ALIMENTOS',MARZO,6,true,ALTA
127,79,38.51,'MODA',SEPTIEMBRE,1,true,ALTA
118,5,38.09,'HOGAR',SEPTIEMBRE,7,true,ALTA
134,82,61.55,'ALIMENTOS',NOVIEMBRE,3,true,ALTA
108,72,84.09,'HOGAR',MARZO,5,true,ALTA
77,100,97.75,'DEPORTES',DICIEMBRE,10,false,ALTA
11,12,66.63,'DEPORTES',DICIEMBRE,8,true,BAJA
30,39,30.79,'ELECTRONICA',JUNIO,9,false,MEDIA
12,11,13.33,'ELECTRONICA',SEPTIEMBRE,7,false,BAJA
110,10,132.15,'MODA',JUNIO,4,false,BAJA
69,17,136.29,'HOGAR',ABRIL,4,true,MEDIA
128,100,126.99,'MODA',ENERO,7,false,ALTA
42,87,85.92,'ALIMENTOS',MAYO,4,true,MEDIA
81,95,5.9,'HOGAR',AGOSTO,7,true,ALTA
40,43,136.55,'HOGAR',JULIO,10,false,BAJA
104,38,36.8,'ELECTRONICA',MARZO,9,true,BAJA
61,28,43.53,'ELECTRONICA',JUNIO,2,true,MEDIA
1,84,13.69,'ELECTRONICA',FEBRERO,0,false,BAJA
40,64,57.18,'ELECTRONICA',MAYO,2,true,MEDIA
97,2,105.54,'MODA',OCTUBRE,1,false,ALTA
96,99,65.29,'HOGAR',FEBRERO,9,false,ALTA
137,70,76.84,'MODA',JULIO,10,false,ALTA
43,5,2.46,'ALIMENTOS',MARZO,0,false,MEDIA
124,89,133.99,'DEPORTES',SEPTIEMBRE,3,false,ALTA
149,28,126.44,'DEPORTES',MARZO,7,false,MEDIA
72,22,67.89,'ALIMENTOS',ABRIL,0,true,MEDIA
69,96,3.1,'MODA',DICIEMBRE,4,false,MEDIA
95,97,34.51,'DEPORTES',DICIEMBRE,6,false,ALTA
105,64,97.3,'HOGAR',NOVIEMBRE,3,false,ALTA
113,48,40.44,'DEPORTES',ABRIL,9,true,ALTA
86,68,80.66,'ELECTRONICA',AGOSTO,0,true,ALTA
28,18,32.33,'ELECTRONICA',JUNIO,4,false,BAJA
99,9,86.09,'MODA',JULIO,7,false,ALTA
57,60,84.79,'MODA',MARZO,6,true,MEDIA
36,43,99.35,'ELECTRONICA',OCTUBRE,5,false,MEDIA
110,30,10.06,'HOGAR',FEBRERO,0,false,ALTA
63,87,13.12,'ELECTRONICA',JUNIO,0,false,MEDIA
66,45,116.9,'MODA',OCTUBRE,8,true,MEDIA
56,22,34.7,'MODA',MAYO,9,true,MEDIA
62,29,144.9,'DEPORTES',AGOSTO,3,false,MEDIA
69,43,83.78,'ELECTRONICA',JULIO,3,false,MEDIA
52,11,139.05,'ELECTRONICA',ABRIL,6,false,MEDIA
54,23,82.89,'HOGAR',MAYO,0,false,MEDIA
52,17,33.1,'HOGAR',AGOSTO,0,true,MEDIA
50,53,127.97,'ALIMENTOS',MARZO,5,false,MEDIA
47,15,11.88,'ELECTRONICA',AGOSTO,2,true,MEDIA
107,23,127.74,'MODA',JUNIO,7,false,ALTA
54,23,93.36,'MODA',MARZO,2,true,MEDIA
95,21,23.19,'ELECTRONICA',ABRIL,4,true,BAJA
34,9,101.9,'ALIMENTOS',DICIEMBRE,1,true,MEDIA
5,78,2.35,'MODA',JULIO,0,true,BAJA
71,22,111.4,'MODA',NOVIEMBRE,1,true,MEDIA
92,21,136.87,'DEPORTES',AGOSTO,10,true,ALTA
39,61,111.22,'ALIMENTOS',SEPTIEMBRE,7,true,MEDIA
4,14,40.81,'DEPORTES',SEPTIEMBRE,10,true,BAJA
115,96,5.5,'MODA',ENERO,4,true,ALTA
17,2,60.18,'MODA',DICIEMBRE,9,true,BAJA
133,80,52.26,'HOGAR',AGOSTO,10,true,ALTA
113,91,150.0,'HOGAR',SEPTIEMBRE,10,false,ALTA
100,5,139.06,'MODA',JUNIO,4,true,ALTA
24,29,98.54,'DEPORTES',ENERO,10,true,BAJA
148,100,10.23,'HOGAR',NOVIEMBRE,2,false,ALTA
48,58,119.56,'MODA',JUNIO,8,false,MEDIA
109,94,100.36,'ELECTRONICA',OCTUBRE,6,false,ALTA
129,5,44.69,'ALIMENTOS',AGOSTO,6,false,BAJA
138,28,125.32,'ELECTRONICA',SEPTIEMBRE,10,true,ALTA
44,50,146.59,'ELECTRONICA',MARZO,2,true,MEDIA
131,19,24.94,'ALIMENTOS',FEBRERO,4,true,BAJA
29,99,10.8,'ALIMENTOS',ENERO,8,false,BAJA
45,95,15.85,'ELECTRONICA',AGOSTO,5,false,MEDIA
76,70,89.74,'DEPORTES',MARZO,9,true,ALTA
71,42,8.13,'MODA',JULIO,2,false,MEDIA
86,88,35.91,'DEPORTES',ABRIL,9,false,ALTA
29,54,68.88,'ELECTRONICA',AGOSTO,1,true,BAJA
124,27,9.47,'ELECTRONICA',JULIO,7,false,ALTA
56,9,149.24,'MODA',MARZO,6,true,MEDIA
100,82,108.67,'DEPORTES',ABRIL,3,true,ALTA
60,60,92.49,'DEPORTES',JULIO,7,true,MEDIA
61,77,149.81,'ELECTRONICA',MARZO,8,false,MEDIA
25,32,90.51,'HOGAR',SEPTIEMBRE,4,true,BAJA
22,83,130.9,'ALIMENTOS',OCTUBRE,3,false,BAJA
98,40,30.34,'HOGAR',JULIO,8,true,ALTA
76,80,110.61,'DEPORTES',JULIO,9,false,ALTA
145,27,137.68,'MODA',MAYO,1,true,ALTA
90,82,27.93,'ALIMENTOS',JUNIO,4,false,ALTA
15,32,27.75,'MODA',MAYO,7,true,BAJA
126,55,97.24,'DEPORTES',ENERO,4,false,ALTA
51,1,94.99,'DEPORTES',SEPTIEMBRE,6,false,MEDIA
93,14,133.57,'DEPORTES',JUNIO,2,true,ALTA
125,17,14.45,'ELECTRONICA',MAYO,2,true,ALTA
122,54,14.19,'ALIMENTOS',MAYO,10,false,ALTA
133,89,41.07,'DEPORTES',MAYO,6,false,ALTA
31,61,15.99,'MODA',ABRIL,10,false,MEDIA
33,53,24.46,'HOGAR',OCTUBRE,4,true,MEDIA
127,59,57.2,'DEPORTES',DICIEMBRE,1,false,ALTA
120,3,119.13,'ALIMENTOS',JUNIO,1,true,ALTA
118,56,134.32,'HOGAR',ENERO,10,false,ALTA
98,29,104.12,'DEPORTES',OCTUBRE,6,true,ALTA
94,87,22.79,'HOGAR',DICIEMBRE,6,false,ALTA
32,20,21.1,'MODA',SEPTIEMBRE,2,true,MEDIA
14,44,111.76,'DEPORTES',MAYO,1,true,BAJA
72,54,43.12,'ELECTRONICA',DICIEMBRE,1,true,MEDIA
74,78,51.29,'ELECTRONICA',MAYO,3,false,MEDIA
2,93,42.71,'DEPORTES',FEBRERO,2,false,BAJA
93,15,127.71,'DEPORTES',MARZO,7,false,ALTA
137,32,86.41,'ELECTRONICA',JUNIO,0,false,ALTA
59,91,78.23,'DEPORTES',DICIEMBRE,10,true,MEDIA
147,32,112.28,'ALIMENTOS',AGOSTO,7,false,MEDIA
56,20,66.32,'MODA',ABRIL,9,false,MEDIA
1,56,49.95,'DEPORTES',OCTUBRE,2,true,BAJA
24,96,100.44,'ELECTRONICA',AGOSTO,1,true,MEDIA
126,7,62.43,'DEPORTES',MARZO,9,false,ALTA
68,10,55.4,'MODA',ABRIL,0,false,MEDIA
133,27,119.04,'ALIMENTOS',MARZO,10,true,ALTA
143,86,77.18,'DEPORTES',DICIEMBRE,0,false,ALTA
31,73,54.7,'ALIMENTOS',DICIEMBRE,4,false,MEDIA
84,85,26.6,'MODA',ENERO,1,false,ALTA
102,71,32.58,'MODA',MAYO,0,false,MEDIA
47,50,37.43,'HOGAR',JUNIO,9,true,MEDIA
139,79,107.17,'ALIMENTOS',ABRIL,8,true,MEDIA
125,86,107.29,'ALIMENTOS',ABRIL,0,false,ALTA
19,74,146.09,'ELECTRONICA',NOVIEMBRE,5,true,ALTA
54,96,63.86,'ALIMENTOS',AGOSTO,3,true,MEDIA
91,27,33.26,'DEPORTES',NOVIEMBRE,5,false,ALTA
64,72,130.37,'ALIMENTOS',MARZO,10,true,MEDIA
139,42,115.92,'DEPORTES',ENERO,1,true,ALTA
116,17,57.51,'MODA',MARZO,3,false,ALTA
103,60,119.29,'ELECTRONICA',SEPTIEMBRE,5,false,ALTA
118,67,19.97,'ELECTRONICA',MARZO,7,false,ALTA
129,21,58.05,'DEPORTES',ENERO,7,true,MEDIA
133,5,81.05,'DEPORTES',JULIO,9,true,ALTA
149,8,93.51,'ELECTRONICA',FEBRERO,6,false,MEDIA
58,11,133.39,'MODA',ENERO,0,true,MEDIA
69,44,51.23,'ALIMENTOS',OCTUBRE,4,true,MEDIA
6,33,69.35,'DEPORTES',DICIEMBRE,6,false,BAJA
13,73,33.99,'DEPORTES',AGOSTO,2,false,BAJA
45,44,73.83,'MODA',OCTUBRE,6,false,MEDIA
40,42,8.94,'DEPORTES',MAYO,8,true,MEDIA
72,52,129.27,'DEPORTES',DICIEMBRE,10,true,MEDIA
5,31,104.99,'HOGAR',MARZO,5,true,BAJA
113,21,22.13,'ELECTRONICA',ENERO,5,true,ALTA
7,41,54.42,'DEPORTES',DICIEMBRE,9,true,BAJA
118,58,102.43,'ALIMENTOS',MARZO,8,true,ALTA
76,3,77.56,'ELECTRONICA',JUNIO,7,true,BAJA
52,10,92.76,'MODA',OCTUBRE,7,true,MEDIA
141,88,31.65,'MODA',FEBRERO,6,false,BAJA
101,89,16.95,'HOGAR',SEPTIEMBRE,8,true,ALTA
124,19,93.93,'HOGAR',JULIO,4,true,ALTA
6,90,17.5,'HOGAR',SEPTIEMBRE,4,true,BAJA
136,48,148.77,'ALIMENTOS',ABRIL,4,false,ALTA
97,27,28.89,'ELECTRONICA',SEPTIEMBRE,9,true,ALTA
143,33,36.1,'ALIMENTOS',OCTUBRE,9,true,ALTA
132,8,75.43,'ELECTRONICA',JUNIO,7,true,ALTA
58,66,94.57,'MODA',MARZO,4,true,MEDIA
26,51,75.71,'ELECTRONICA',JUNIO,3,false,BAJA
88,13,31.89,'DEPORTES',JUNIO,0,true,ALTA
11,60,124.27,'ELECTRONICA',JULIO,0,true,BAJA
67,38,80.65,'MODA',FEBRERO,6,false,MEDIA
52,35,7.85,'DEPORTES',ENERO,1,true,MEDIA
29,97,115.91,'MODA',OCTUBRE,7,true,BAJA
46,24,36.88,'ALIMENTOS',OCTUBRE,5,false,MEDIA
111,84,11.38,'ELECTRONICA',ABRIL,6,true,ALTA
124,4,127.99,'MODA',ENERO,10,false,ALTA
27,56,9.85,'MODA',DICIEMBRE,6,true,BAJA
54,75,7.81,'DEPORTES',ENERO,6,false,MEDIA
85,65,2.96,'ELECTRONICA',MAYO,9,false,ALTA
109,30,35.79,'MODA',MARZO,4,true,ALTA
138,86,95.44,'HOGAR',DICIEMBRE,0,false,ALTA
106,8,98.64,'MODA',ABRIL,4,true,ALTA
34,87,102.38,'HOGAR',ABRIL,3,false,MEDIA
52,29,74.54,'ELECTRONICA',AGOSTO,4,false,MEDIA
14,88,5.0,'HOGAR',DICIEMBRE,7,true,BAJA
114,44,123.31,'MODA',JUNIO,5,false,ALTA
105,5,90.98,'HOGAR',DICIEMBRE,9,true,ALTA
55,46,64.08,'HOGAR',JULIO,10,false,MEDIA
83,11,60.24,'ELECTRONICA',MARZO,1,false,ALTA
97,4,87.94,'ELECTRONICA',ENERO,4,false,ALTA
115,55,143.89,'MODA',AGOSTO,9,true,ALTA
116,80,98.62,'MODA',MARZO,4,true,ALTA
112,77,62.07,'MODA',SEPTIEMBRE,3,false,ALTA
31,6,124.29,'ELECTRONICA',MARZO,5,false,MEDIA
14,2,142.82,'ELECTRONICA',JULIO,5,false,BAJA
90,85,49.22,'MODA',MAYO,9,false,MEDIA
28,0,103.05,'ELECTRONICA',ENERO,4,true,BAJA
22,95,48.8,'MODA',OCTUBRE,5,true,BAJA
8,95,70.61,'DEPORTES',FEBRERO,3,true,BAJA
58,88,11.14,'HOGAR',ABRIL,1,false,MEDIA
33,88,127.06,'DEPORTES',FEBRERO,9,false,MEDIA
40,4,81.69,'MODA',SEPTIEMBRE,7,true,ALTA
30,9,106.85,'ALIMENTOS',AGOSTO,2,false,BAJA
15,89,20.0,'DEPORTES',ABRIL,1,true,BAJA
30,14,7.88,'DEPORTES',DICIEMBRE,9,false,MEDIA
146,25,148.74,'DEPORTES',ABRIL,3,false,ALTA
1,42,136.23,'DEPORTES',AGOSTO,1,true,BAJA
108,5,88.49,'HOGAR',MARZO,6,false,ALTA
104,95,54.01,'MODA',MARZO,2,true,BAJA
62,0,109.04,'MODA',ENERO,0,false,MEDIA
20,43,130.19,'DEPORTES',ENERO,3,false,BAJA
94,11,114.97,'MODA',AGOSTO,2,true,ALTA
124,83,33.97,'MODA',MARZO,9,false,ALTA
19,57,9.03,'ALIMENTOS',SEPTIEMBRE,4,false,ALTA
112,46,47.65,'ELECTRONICA',DICIEMBRE,8,true,ALTA
144,41,23.12,'MODA',MAYO,9,false,ALTA
81,8,130.7,'ELECTRONICA',JULIO,3,true,ALTA
67,91,9.34,'DEPORTES',SEPTIEMBRE,9,false,MEDIA
51,26,14.85,'ALIMENTOS',ENERO,7,true,MEDIA
89,22,33.91,'DEPORTES',JULIO,1,true,ALTA
116,54,94.84,'ALIMENTOS',NOVIEMBRE,3,true,MEDIA
61,38,111.98,'ALIMENTOS',DICIEMBRE,3,false,MEDIA
57,72,59.84,'MODA',OCTUBRE,9,false,MEDIA
148,77,71.89,'MODA',JULIO,2,false,ALTA
110,82,61.04,'MODA',ABRIL,4,true,ALTA
41,37,5.8,'MODA',ENERO,6,false,BAJA
18,40,51.03,'ALIMENTOS',JUNIO,9,true,BAJA
72,26,43.44,'DEPORTES',JULIO,7,false,MEDIA
104,55,34.45,'MODA',FEBRERO,4,true,BAJA
115,23,3.9,'HOGAR',NOVIEMBRE,2,true,ALTA
18,7,23.06,'ELECTRONICA',SEPTIEMBRE,6,false,BAJA
2,45,93.05,'ALIMENTOS',SEPTIEMBRE,1,false,BAJA
56,76,6.85,'ALIMENTOS',JUNIO,8,false,MEDIA
8,31,11.36,'MODA',OCTUBRE,7,true,BAJA
11,80,140.39,'ALIMENTOS',SEPTIEMBRE,10,true,BAJA
74,9,50.44,'ELECTRONICA',ENERO,1,true,MEDIA
120,13,82.29,'ALIMENTOS',MAYO,5,false,ALTA
31,2,89.5,'HOGAR',NOVIEMBRE,9,true,MEDIA
116,41,16.21,'DEPORTES',AGOSTO,10,true,ALTA
36,44,137.24,'MODA',ABRIL,8,false,MEDIA
75,52,60.36,'ELECTRONICA',DICIEMBRE,4,false,ALTA
70,16,143.91,'ALIMENTOS',ABRIL,6,false,MEDIA
93,16,143.39,'ALIMENTOS',DICIEMBRE,6,true,ALTA
84,75,11.84,'ALIMENTOS',MAYO,2,true,ALTA
121,59,107.54,'DEPORTES',OCTUBRE,2,true,ALTA
133,57,137.77,'ELECTRONICA',NOVIEMBRE,2,false,ALTA
35,59,117.19,'HOGAR',ABRIL,6,true,MEDIA
22,54,83.15,'DEPORTES',NOVIEMBRE,8,true,MEDIA
52,52,131.45,'ELECTRONICA',ENERO,1,false,MEDIA
149,62,53.89,'MODA',AGOSTO,7,false,ALTA
4,76,86.42,'HOGAR',NOVIEMBRE,8,false,BAJA
142,61,88.78,'ELECTRONICA',SEPTIEMBRE,6,true,ALTA
7,99,126.7,'MODA',JULIO,3,false,BAJA
136,29,64.25,'ELECTRONICA',MAYO,0,false,ALTA
36,22,93.45,'MODA',ABRIL,9,true,MEDIA
90,97,134.12,'ELECTRONICA',DICIEMBRE,6,true,ALTA
139,88,90.86,'ELECTRONICA',AGOSTO,2,false,ALTA
122,19,143.18,'MODA',JULIO,8,true,ALTA
57,8,125.06,'MODA',ENERO,2,false,MEDIA
104,55,5.78,'MODA',OCTUBRE,9,false,ALTA
37,25,46.76,'HOGAR',MAYO,5,true,MEDIA
11,44,67.66,'ELECTRONICA',ENERO,4,true,BAJA
86,95,123.61,'ELECTRONICA',JUNIO,1,true,ALTA
124,10,132.94,'DEPORTES',MAYO,10,false,ALTA
26,54,11.44,'MODA',MARZO,7,true,BAJA
7,22,50.02,'MODA',AGOSTO,7,true,BAJA
75,34,91.77,'MODA',MARZO,0,true,ALTA
102,76,97.5,'HOGAR',AGOSTO,6,true,ALTA
83,44,72.83,'ALIMENTOS',FEBRERO,7,true,ALTA
150,48,119.7,'ALIMENTOS',JULIO,8,true,ALTA
93,96,85.57,'MODA',OCTUBRE,0,false,ALTA
28,96,30.53,'HOGAR',MARZO,6,false,MEDIA
8,58,47.41,'ELECTRONICA',ENERO,3,false,BAJA
107,92,102.46,'ALIMENTOS',MARZO,2,false,ALTA
31,92,131.25,'ELECTRONICA',NOVIEMBRE,1,false,MEDIA
100,58,149.87,'MODA',MARZO,7,false,ALTA
75,1,128.84,'HOGAR',JUNIO,9,false,ALTA
79,99,68.54,'DEPORTES',ABRIL,4,false,MEDIA
144,49,23.4,'DEPORTES',OCTUBRE,1,true,ALTA
74,58,74.92,'ELECTRONICA',FEBRERO,3,true,ALTA
69,83,130.8,'DEPORTES',AGOSTO,0,true,MEDIA
90,92,68.68,'DEPORTES',ABRIL,8,true,ALTA
125,83,54.96,'MODA',SEPTIEMBRE,5,false,ALTA
75,96,71.87,'ALIMENTOS',MARZO,2,true,ALTA
82,60,31.93,'ALIMENTOS',AGOSTO,8,true,ALTA
27,53,108.55,'ALIMENTOS',MARZO,0,true,BAJA
101,90,45.61,'HOGAR',FEBRERO,4,false,ALTA
113,27,116.56,'MODA',ABRIL,4,false,ALTA
106,68,50.58,'HOGAR',ABRIL,9,false,ALTA
68,74,100.93,'HOGAR',SEPTIEMBRE,5,true,MEDIA
64,63,69.81,'HOGAR',OCTUBRE,6,true,MEDIA
87,56,19.19,'ALIMENTOS',DICIEMBRE,8,true,ALTA
57,10,10.11,'HOGAR',ENERO,3,false,MEDIA
71,43,82.78,'ALIMENTOS',OCTUBRE,4,true,MEDIA
74,54,21.66,'HOGAR',ABRIL,6,true,MEDIA
43,54,71.2,'DEPORTES',OCTUBRE,1,true,MEDIA
26,16,51.37,'MODA',AGOSTO,1,false,BAJA
54,97,118.63,'MODA',JULIO,1,true,MEDIA
117,28,117.47,'ALIMENTOS',MAYO,5,false,ALTA
80,21,43.38,'ALIMENTOS',DICIEMBRE,7,false,ALTA
67,4,90.21,'DEPORTES',DICIEMBRE,8,true,ALTA
10,47,111.32,'MODA',ENERO,3,true,BAJA
35,47,45.78,'ELECTRONICA',MAYO,6,true,MEDIA
138,71,146.77,'ALIMENTOS',DICIEMBRE,0,false,ALTA
49,91,49.95,'ELECTRONICA',SEPTIEMBRE,9,true,MEDIA
148,42,35.63,'DEPORTES',MAYO,2,false,ALTA
135,98,86.16,'DEPORTES',JUNIO,0,false,ALTA
66,37,23.89,'MODA',JUNIO,4,false,MEDIA
132,75,142.6,'ALIMENTOS',JULIO,1,false,BAJA
39,44,104.29,'DEPORTES',MARZO,6,false,MEDIA
48,25,44.23,'DEPORTES',SEPTIEMBRE,0,false,MEDIA
86,44,98.47,'HOGAR',OCTUBRE,0,true,ALTA
77,43,90.21,'HOGAR',OCTUBRE,5,true,ALTA
72,60,130.9,'HOGAR',JULIO,6,false,MEDIA
57,82,75.95,'ELECTRONICA',DICIEMBRE,6,false,MEDIA
13,85,29.53,'HOGAR',FEBRERO,8,false,BAJA
120,78,22.92,'MODA',AGOSTO,1,false,ALTA
86,28,57.2,'DEPORTES',SEPTIEMBRE,9,false,ALTA
86,65,119.34,'MODA',AGOSTO,5,true,ALTA
59,85,116.19,'DEPORTES',MARZO,6,true,MEDIA
120,73,60.94,'MODA',MAYO,6,false,ALTA
149,2,106.7,'HOGAR',AGOSTO,5,true,ALTA
34,48,139.53,'HOGAR',OCTUBRE,4,true,MEDIA
141,65,149.03,'DEPORTES',DICIEMBRE,5,true,ALTA
122,4,110.98,'ALIMENTOS',JULIO,4,true,ALTA
92,70,54.99,'ALIMENTOS',ENERO,6,true,ALTA
102,22,121.57,'ALIMENTOS',MAYO,5,false,ALTA
5,48,74.64,'ELECTRONICA',MARZO,8,false,BAJA
36,60,108.33,'HOGAR',NOVIEMBRE,8,false,MEDIA
52,7,92.25,'HOGAR',JUNIO,9,false,MEDIA
144,10,82.06,'DEPORTES',NOVIEMBRE,7,true,MEDIA
51,41,60.44,'HOGAR',MAYO,1,true,MEDIA
52,61,122.01,'ELECTRONICA',NOVIEMBRE,2,false,MEDIA
130,21,75.54,'ALIMENTOS',MAYO,8,true,ALTA
41,63,32.33,'MODA',FEBRERO,2,false,MEDIA
115,40,134.95,'DEPORTES',JULIO,2,false,ALTA
85,57,102.27,'HOGAR',SEPTIEMBRE,1,true,ALTA
36,94,103.87,'HOGAR',DICIEMBRE,10,false,MEDIA
1,83,149.5,'ELECTRONICA',ABRIL,7,false,ALTA
147,94,116.15,'ELECTRONICA',FEBRERO,8,false,ALTA
41,2,58.39,'MODA',ENERO,0,true,MEDIA
25,32,114.24,'MODA',MARZO,9,false,BAJA
85,83,63.54,'ELECTRONICA',DICIEMBRE,7,true,ALTA
17,78,11.53,'ALIMENTOS',AGOSTO,10,true,BAJA
35,73,7.83,'MODA',ABRIL,8,false,MEDIA
64,14,94.66,'ELECTRONICA',AGOSTO,8,false,MEDIA
86,54,43.15,'DEPORTES',JULIO,1,false,MEDIA
116,63,35.66,'ELECTRONICA',ENERO,1,true,ALTA
39,20,50.23,'MODA',SEPTIEMBRE,8,false,MEDIA
63,57,94.08,'HOGAR',MAYO,9,false,MEDIA
144,80,32.29,'MODA',NOVIEMBRE,8,true,ALTA
95,59,122.74,'MODA',AGOSTO,8,false,ALTA
140,89,13.61,'MODA',SEPTIEMBRE,3,true,ALTA
95,61,139.09,'ELECTRONICA',MAYO,5,false,ALTA
83,10,34.2,'HOGAR',OCTUBRE,7,true,ALTA
76,87,59.38,'ELECTRONICA',AGOSTO,2,false,ALTA
148,25,80.84,'DEPORTES',SEPTIEMBRE,1,true,ALTA
37,37,34.56,'ALIMENTOS',JUNIO,1,false,BAJA
29,38,110.66,'DEPORTES',ABRIL,9,true,BAJA
50,48,79.74,'HOGAR',NOVIEMBRE,9,false,MEDIA
125,26,112.39,'ALIMENTOS',NOVIEMBRE,5,true,ALTA
71,74,146.68,'DEPORTES',FEBRERO,8,true,MEDIA
49,32,76.12,'HOGAR',ENERO,8,false,MEDIA
49,10,44.68,'MODA',NOVIEMBRE,7,true,MEDIA
83,68,123.1,'HOGAR',AGOSTO,9,true,ALTA
127,24,14.6,'ELECTRONICA',ENERO,9,true,ALTA
29,83,138.72,'DEPORTES',MAYO,9,true,BAJA
150,31,77.9,'ALIMENTOS',JULIO,4,true,BAJA
1,90,58.71,'DEPORTES',JUNIO,9,true,BAJA
38,84,147.62,'HOGAR',MARZO,9,true,MEDIA
45,70,74.3,'HOGAR',DICIEMBRE,0,true,MEDIA
2,78,54.81,'ALIMENTOS',AGOSTO,7,true,ALTA
129,37,17.53,'DEPORTES',DICIEMBRE,10,true,ALTA
25,59,23.54,'HOGAR',ENERO,3,true,BAJA
135,55,56.42,'HOGAR',MARZO,9,true,ALTA
120,65,86.02,'HOGAR',MAYO,5,true,ALTA
102,82,27.3,'HOGAR',MARZO,9,false,ALTA
105,51,112.87,'DEPORTES',ABRIL,6,true,ALTA
21,57,131.22,'ELECTRONICA',AGOSTO,3,true,BAJA
67,45,81.28,'ELECTRONICA',NOVIEMBRE,4,false,MEDIA
2,33,134.22,'ALIMENTOS',MAYO,3,false,BAJA
86,70,140.53,'ELECTRONICA',MAYO,10,false,ALTA
57,81,117.48,'HOGAR',SEPTIEMBRE,1,true,MEDIA
91,45,58.81,'DEPORTES',FEBRERO,7,false,ALTA
64,40,5.83,'DEPORTES',MAYO,9,false,MEDIA
37,75,60.46,'ALIMENTOS',FEBRERO,10,false,MEDIA
42,79,143.61,'HOGAR',JUNIO,6,true,MEDIA
133,25,10.15,'DEPORTES',OCTUBRE,8,false,ALTA
108,89,82.82,'ELECTRONICA',JULIO,5,false,BAJA
132,2,119.92,'ALIMENTOS',NOVIEMBRE,10,true,ALTA
74,12,106.57,'DEPORTES',AGOSTO,0,false,MEDIA
25,13,90.58,'ALIMENTOS',ABRIL,7,true,ALTA
5,83,141.15,'MODA',ENERO,2,false,ALTA
51,69,59.48,'MODA',JULIO,3,false,MEDIA
113,38,75.8,'ELECTRONICA',JULIO,4,false,ALTA
149,93,134.79,'ALIMENTOS',DICIEMBRE,1,true,ALTA
37,38,90.43,'ELECTRONICA',AGOSTO,1,false,MEDIA
114,65,67.7,'ALIMENTOS',JUNIO,9,true,ALTA
130,57,149.48,'ALIMENTOS',NOVIEMBRE,7,true,ALTA
125,15,21.19,'ALIMENTOS',ENERO,0,false,ALTA
75,12,5.57,'HOGAR',OCTUBRE,9,false,ALTA
150,56,103.82,'ALIMENTOS',ENERO,5,false,BAJA
132,58,98.46,'ELECTRONICA',JULIO,5,false,ALTA
138,71,62.67,'ELECTRONICA',FEBRERO,8,false,ALTA
75,62,149.01,'ALIMENTOS',JUNIO,2,true,ALTA
135,76,63.79,'ALIMENTOS',AGOSTO,1,true,ALTA
101,100,119.15,'ELECTRONICA',OCTUBRE,8,false,ALTA
34,95,147.86,'MODA',NOVIEMBRE,6,true,MEDIA
124,4,22.09,'HOGAR',SEPTIEMBRE,5,true,ALTA
78,30,85.51,'DEPORTES',ABRIL,1,true,ALTA
41,19,36.2,'HOGAR',DICIEMBRE,0,false,MEDIA
21,32,68.71,'MODA',FEBRERO,10,true,BAJA
26,50,79.14,'MODA',JUNIO,0,false,BAJA
4,95,18.53,'ALIMENTOS',FEBRERO,6,false,BAJA
6,85,76.34,'ALIMENTOS',ENERO,9,true,BAJA
44,29,50.86,'MODA',ABRIL,9,true,MEDIA
123,86,28.38,'HOGAR',NOVIEMBRE,10,true,ALTA
60,5,26.07,'HOGAR',ABRIL,0,false,MEDIA
142,32,64.62,'HOGAR',FEBRERO,1,true,BAJA
61,48,142.69,'MODA',DICIEMBRE,0,false,MEDIA
101,77,116.43,'HOGAR',ABRIL,3,true,ALTA
29,47,40.73,'DEPORTES',JUNIO,4,false,BAJA
61,95,23.72,'ELECTRONICA',SEPTIEMBRE,3,false,BAJA
109,64,30.93,'MODA',NOVIEMBRE,9,false,MEDIA
69,69,105.32,'ELECTRONICA',OCTUBRE,6,false,ALTA
71,62,2.56,'ALIMENTOS',OCTUBRE,6,false,MEDIA
104,90,114.64,'ALIMENTOS',MAYO,1,false,MEDIA
41,31,96.26,'ELECTRONICA',MARZO,4,true,MEDIA
58,79,110.02,'DEPORTES',AGOSTO,6,false,MEDIA
99,92,132.14,'MODA',ABRIL,7,true,ALTA
30,8,26.78,'ELECTRONICA',JULIO,1,false,MEDIA
92,29,54.03,'MODA',ENERO,2,true,ALTA
141,64,142.02,'DEPORTES',MARZO,8,true,ALTA
65,59,78.83,'DEPORTES',ENERO,4,true,MEDIA
104,57,50.33,'ELECTRONICA',ABRIL,3,false,ALTA
96,97,77.38,'DEPORTES',OCTUBRE,3,false,ALTA
139,49,4.68,'HOGAR',SEPTIEMBRE,7,true,ALTA
120,50,123.68,'MODA',OCTUBRE,1,true,ALTA
1,9,117.58,'HOGAR',MARZO,3,false,BAJA
49,44,85.18,'MODA',JULIO,1,true,MEDIA
149,43,146.25,'MODA',OCTUBRE,0,false,ALTA
148,44,133.66,'DEPORTES',OCTUBRE,10,true,ALTA
48,91,67.2,'MODA',FEBRERO,0,true,MEDIA
138,45,91.86,'MODA',MAYO,6,true,ALTA
121,86,28.48,'ELECTRONICA',AGOSTO,9,true,BAJA
84,31,24.55,'DEPORTES',NOVIEMBRE,8,false,ALTA
145,63,9.59,'HOGAR',DICIEMBRE,9,false,ALTA
123,16,55.72,'DEPORTES',JULIO,9,true,ALTA
33,84,69.58,'ALIMENTOS',SEPTIEMBRE,5,false,MEDIA
68,73,113.47,'ELECTRONICA',FEBRERO,8,true,MEDIA
139,84,106.16,'HOGAR',ENERO,0,true,ALTA
75,27,129.87,'HOGAR',MARZO,7,true,MEDIA
50,42,126.4,'ALIMENTOS',DICIEMBRE,7,true,MEDIA
114,95,95.59,'ELECTRONICA',NOVIEMBRE,10,true,ALTA
133,48,65.46,'ELECTRONICA',ENERO,6,true,ALTA
38,91,6.6,'HOGAR',NOVIEMBRE,8,true,MEDIA
59,78,112.23,'DEPORTES',MARZO,2,false,MEDIA
63,36,70.43,'DEPORTES',NOVIEMBRE,5,false,MEDIA
42,21,69.99,'DEPORTES',MAYO,3,false,MEDIA
19,3,25.12,'MODA',SEPTIEMBRE,9,false,BAJA
54,91,2.03,'MODA',NOVIEMBRE,3,false,MEDIA
88,35,7.49,'HOGAR',SEPTIEMBRE,1,false,MEDIA
69,6,97.6,'ALIMENTOS',ENERO,0,true,MEDIA
97,41,51.07,'DEPORTES',NOVIEMBRE,8,false,ALTA
102,17,60.38,'ALIMENTOS',MARZO,10,false,BAJA
23,32,14.08,'ELECTRONICA',DICIEMBRE,8,true,BAJA
83,79,38.19,'HOGAR',MAYO,9,true,MEDIA
27,31,21.08,'DEPORTES',ABRIL,8,false,ALTA
123,35,27.99,'ELECTRONICA',FEBRERO,4,false,ALTA
19,100,135.49,'DEPORTES',NOVIEMBRE,10,false,BAJA
57,33,66.74,'DEPORTES',ABRIL,3,true,ALTA
74,9,11.28,'ELECTRONICA',SEPTIEMBRE,5,false,MEDIA
136,10,2.3,'ELECTRONICA',DICIEMBRE,5,true,ALTA
57,42,42.86,'ELECTRONICA',OCTUBRE,3,true,MEDIA
55,89,11.04,'MODA',SEPTIEMBRE,0,true,MEDIA
127,6,108.13,'ALIMENTOS',ABRIL,6,false,BAJA
45,23,54.28,'DEPORTES',JULIO,4,true,MEDIA
150,9,94.83,'ELECTRONICA',ABRIL,10,true,MEDIA
118,5,29.89,'MODA',DICIEMBRE,3,false,ALTA
97,75,95.99,'MODA',NOVIEMBRE,5,true,ALTA
20,45,98.34,'MODA',AGOSTO,4,true,BAJA
87,47,114.03,'ELECTRONICA',OCTUBRE,4,true,ALTA
144,58,102.46,'ELECTRONICA',DICIEMBRE,7,false,ALTA
42,46,116.75,'MODA',DICIEMBRE,0,false,MEDIA
57,65,58.08,'ELECTRONICA',SEPTIEMBRE,7,false,MEDIA
51,83,125.71,'DEPORTES',OCTUBRE,4,false,MEDIA
142,47,98.3,'HOGAR',AGOSTO,3,false,ALTA
14,14,142.18,'MODA',SEPTIEMBRE,6,true,BAJA
51,36,94.78,'HOGAR',ENERO,1,true,MEDIA
41,23,38.04,'ALIMENTOS',MARZO,5,true,MEDIA
5,63,116.86,'MODA',OCTUBRE,8,false,BAJA
30,62,26.74,'MODA',ABRIL,1,true,MEDIA
127,22,13.52,'HOGAR',ENERO,4,true,ALTA
10,39,111.05,'HOGAR',MAYO,4,true,BAJA
27,22,96.05,'MODA',JUNIO,6,false,BAJA
11,74,126.71,'ELECTRONICA',SEPTIEMBRE,4,true,BAJA
36,53,135.44,'ELECTRONICA',AGOSTO,10,true,ALTA
21,29,90.85,'HOGAR',MARZO,1,true,BAJA
107,20,120.74,'HOGAR',MAYO,6,false,BAJA
24,43,4.94,'HOGAR',NOVIEMBRE,3,true,BAJA
92,9,28.49,'HOGAR',JUNIO,4,true,MEDIA
104,98,116.8,'MODA',MARZO,5,false,ALTA
58,28,33.92,'ELECTRONICA',MARZO,5,false,BAJA
15,80,65.32,'MODA',FEBRERO,9,true,BAJA
146,29,113.02,'HOGAR',MAYO,8,false,ALTA
124,84,54.58,'DEPORTES',JULIO,5,true,ALTA
115,8,28.92,'HOGAR',MAYO,0,true,ALTA
141,64,111.75,'DEPORTES',MAYO,10,false,ALTA
42,8,36.26,'HOGAR',MARZO,9,false,MEDIA
83,4,149.92,'ALIMENTOS',MARZO,2,false,ALTA
134,48,38.34,'DEPORTES',MARZO,4,true,ALTA
140,20,146.83,'HOGAR',NOVIEMBRE,10,false,ALTA
117,65,68.3,'ELECTRONICA',JUNIO,10,true,BAJA
78,63,26.99,'MODA',NOVIEMBRE,10,false,ALTA
99,29,8.24,'ELECTRONICA',FEBRERO,3,true,ALTA
37,28,70.06,'MODA',ENERO,0,false,MEDIA
63,84,86.81,'HOGAR',FEBRERO,8,true,MEDIA
45,87,28.93,'HOGAR',MAYO,10,false,MEDIA
49,76,113.73,'ALIMENTOS',FEBRERO,9,false,MEDIA
83,16,46.56,'HOGAR',MARZO,6,true,ALTA
103,10,114.37,'HOGAR',NOVIEMBRE,2,false,ALTA
52,36,106.81,'HOGAR',MARZO,6,false,MEDIA
21,28,26.17,'ELECTRONICA',JUNIO,9,true,BAJA
41,61,139.62,'HOGAR',ENERO,1,false,MEDIA
121,63,14.12,'HOGAR',MARZO,1,true,ALTA
65,32,137.89,'ALIMENTOS',FEBRERO,0,false,MEDIA
44,91,32.59,'MODA',OCTUBRE,3,true,MEDIA
76,67,6.58,'MODA',ABRIL,7,false,ALTA
136,62,134.16,'MODA',JUNIO,9,true,ALTA
5,13,99.87,'MODA',AGOSTO,4,true,ALTA
120,42,123.32,'ELECTRONICA',OCTUBRE,8,true,ALTA
143,22,20.59,'ALIMENTOS',ENERO,10,true,ALTA
61,1,116.72,'ALIMENTOS',ENERO,3,true,MEDIA
124,76,119.1,'DEPORTES',JULIO,6,false,ALTA
84,25,124.34,'ELECTRONICA',FEBRERO,3,false,ALTA
34,11,72.86,'MODA',MAYO,4,true,MEDIA
69,90,127.49,'MODA',SEPTIEMBRE,6,true,MEDIA
20,44,75.87,'ELECTRONICA',SEPTIEMBRE,8,true,BAJA
117,32,27.74,'ELECTRONICA',SEPTIEMBRE,3,true,ALTA
143,2,76.43,'DEPORTES',OCTUBRE,5,false,ALTA
103,85,136.91,'ELECTRONICA',JUNIO,1,true,ALTA
27,53,70.94,'ELECTRONICA',MAYO,7,true,MEDIA
52,10,63.01,'MODA',ENERO,3,true,MEDIA
5,66,72.53,'HOGAR',ENERO,7,true,BAJA
68,26,113.99,'MODA',MAYO,6,false,MEDIA
69,61,45.48,'ELECTRONICA',NOVIEMBRE,10,true,MEDIA
38,68,66.8,'MODA',AGOSTO,10,true,MEDIA
56,5,95.86,'MODA',MARZO,4,false,MEDIA
9,86,17.88,'ELECTRONICA',NOVIEMBRE,7,true,BAJA
138,89,56.63,'ALIMENTOS',ABRIL,7,true,ALTA
126,92,85.75,'ALIMENTOS',DICIEMBRE,10,false,ALTA
29,55,52.29,'ELECTRONICA',OCTUBRE,3,true,BAJA
146,95,128.75,'MODA',JULIO,1,false,ALTA
71,9,121.07,'MODA',FEBRERO,4,true,MEDIA
22,45,145.78,'MODA',AGOSTO,7,true,BAJA
145,95,56.46,'HOGAR',FEBRERO,4,false,ALTA
93,61,60.41,'MODA',ENERO,9,true,ALTA
145,1,32.2,'MODA',MARZO,6,true,ALTA
115,49,4.81,'ELECTRONICA',JULIO,2,true,ALTA
91,4,48.38,'ELECTRONICA',FEBRERO,3,false,ALTA
91,11,74.47,'ALIMENTOS',FEBRERO,6,false,ALTA
80,48,13.55,'DEPORTES',MAYO,0,false,ALTA
78,97,85.35,'ALIMENTOS',MARZO,4,false,ALTA
66,45,4.42,'ELECTRONICA',DICIEMBRE,2,true,MEDIA
79,31,13.43,'ELECTRONICA',MAYO,8,true,ALTA
38,89,57.88,'MODA',SEPTIEMBRE,8,true,MEDIA
141,82,133.72,'ALIMENTOS',OCTUBRE,6,false,ALTA
85,71,2.26,'ELECTRONICA',JULIO,9,false,ALTA
21,67,67.37,'MODA',JULIO,2,true,MEDIA
84,50,107.01,'ALIMENTOS',ENERO,4,true,ALTA
77,50,50.04,'ELECTRONICA',SEPTIEMBRE,1,false,ALTA
43,43,52.59,'ELECTRONICA',OCTUBRE,8,true,MEDIA
62,67,1.09,'DEPORTES',MAYO,5,false,MEDIA
81,68,57.25,'ALIMENTOS',FEBRERO,1,true,BAJA
120,9,16.8,'DEPORTES',ENERO,9,false,ALTA
18,24,88.44,'DEPORTES',ABRIL,10,true,ALTA
139,78,89.21,'HOGAR',JUNIO,7,true,ALTA
106,70,29.62,'DEPORTES',ABRIL,2,true,ALTA
12,66,75.49,'ELECTRONICA',ENERO,4,true,MEDIA
52,44,15.64,'ALIMENTOS',ENERO,1,true,MEDIA
3,57,32.13,'MODA',MAYO,9,false,BAJA
16,88,76.4,'HOGAR',FEBRERO,6,true,BAJA
42,38,77.31,'HOGAR',DICIEMBRE,1,false,MEDIA
141,14,126.61,'ALIMENTOS',MAYO,5,true,ALTA
50,75,1.86,'ELECTRONICA',ABRIL,0,false,MEDIA
2,13,68.64,'MODA',MAYO,10,false,BAJA
98,73,79.1,'ELECTRONICA',OCTUBRE,6,true,ALTA
150,52,58.46,'DEPORTES',ENERO,1,false,ALTA
143,74,100.6,'HOGAR',JULIO,2,false,ALTA
123,100,118.81,'DEPORTES',MAYO,6,true,ALTA
150,58,144.59,'ALIMENTOS',DICIEMBRE,2,true,ALTA
48,93,36.49,'MODA',FEBRERO,1,true,MEDIA
56,92,109.22,'ELECTRONICA',MARZO,5,true,MEDIA
133,86,148.85,'MODA',JULIO,8,true,ALTA
68,84,35.48,'DEPORTES',JUNIO,8,false,MEDIA
89,4,7.63,'MODA',ENERO,1,false,ALTA
14,59,60.19,'ALIMENTOS',FEBRERO,0,true,BAJA
117,71,46.16,'HOGAR',JUNIO,6,true,ALTA
142,16,109.47,'ELECTRONICA',FEBRERO,1,false,ALTA
7,2,14.74,'MODA',AGOSTO,8,true,BAJA
71,35,33.21,'DEPORTES',MARZO,3,true,BAJA
126,33,42.67,'ELECTRONICA',JULIO,5,false,ALTA
24,51,78.02,'HOGAR',DICIEMBRE,9,true,BAJA
118,35,25.37,'MODA',DICIEMBRE,0,true,ALTA
31,37,92.44,'MODA',NOVIEMBRE,8,false,MEDIA
123,42,7.9,'HOGAR',SEPTIEMBRE,8,false,ALTA
69,70,148.19,'ALIMENTOS',SEPTIEMBRE,10,false,MEDIA
143,94,39.89,'ALIMENTOS',DICIEMBRE,7,false,ALTA
87,92,118.69,'ELECTRONICA',MARZO,5,true,ALTA
54,94,30.12,'ELECTRONICA',DICIEMBRE,2,false,MEDIA
150,44,129.93,'MODA',MARZO,6,false,ALTA
75,45,96.56,'HOGAR',FEBRERO,0,false,ALTA
33,77,76.31,'ELECTRONICA',NOVIEMBRE,0,false,MEDIA
68,56,48.42,'ALIMENTOS',OCTUBRE,0,true,ALTA
59,61,36.19,'MODA',ENERO,2,false,MEDIA
49,90,5.51,'DEPORTES',DICIEMBRE,10,true,MEDIA
106,68,4.27,'HOGAR',MAYO,7,true,ALTA
33,80,48.43,'ALIMENTOS',NOVIEMBRE,0,true,MEDIA
67,19,29.12,'ALIMENTOS',DICIEMBRE,4,false,MEDIA
33,9,5.14,'ELECTRONICA',ENERO,6,true,MEDIA
111,95,13.33,'MODA',FEBRERO,4,true,ALTA
54,32,33.02,'ALIMENTOS',FEBRERO,7,true,MEDIA
11,70,56.72,'DEPORTES',NOVIEMBRE,2,true,BAJA
88,51,56.72,'ELECTRONICA',OCTUBRE,10,false,ALTA
132,19,96.13,'MODA',SEPTIEMBRE,9,true,ALTA
25,62,123.29,'DEPORTES',JULIO,2,true,BAJA
129,61,40.71,'HOGAR',DICIEMBRE,3,true,ALTA
69,31,74.17,'HOGAR',MARZO,7,false,MEDIA
95,43,49.57,'MODA',MAYO,8,false,ALTA
81,23,132.08,'ALIMENTOS',OCTUBRE,5,false,ALTA
65,88,41.71,'ALIMENTOS',ABRIL,3,false,MEDIA
81,46,101.9,'MODA',MAYO,5,false,ALTA
5,84,91.53,'DEPORTES',JULIO,4,true,ALTA
18,28,90.42,'ALIMENTOS',JULIO,7,true,BAJA
36,74,122.53,'DEPORTES',JULIO,7,true,MEDIA
107,85,52.76,'DEPORTES',ABRIL,9,true,ALTA
88,76,6.7,'DEPORTES',SEPTIEMBRE,9,false,ALTA
21,37,2.72,'ALIMENTOS',DICIEMBRE,9,true,MEDIA
133,91,78.64,'HOGAR',JUNIO,7,false,ALTA
120,46,134.46,'MODA',FEBRERO,1,true,ALTA
111,30,66.75,'ELECTRONICA',AGOSTO,2,true,ALTA
52,5,25.87,'ALIMENTOS',JULIO,0,false,MEDIA
127,45,59.11,'MODA',ABRIL,2,true,ALTA
46,28,23.76,'ELECTRONICA',AGOSTO,0,false,MEDIA
1,79,86.93,'ELECTRONICA',JULIO,5,false,BAJA
19,95,62.34,'ALIMENTOS',OCTUBRE,0,true,BAJA
80,51,43.14,'HOGAR',OCTUBRE,5,true,ALTA
145,60,19.56,'HOGAR',NOVIEMBRE,8,true,ALTA
55,6,15.83,'DEPORTES',NOVIEMBRE,7,true,MEDIA
91,27,86.61,'DEPORTES',ABRIL,6,false,ALTA
93,4,66.94,'ELECTRONICA',MARZO,9,true,ALTA
78,75,114.68,'HOGAR',AGOSTO,2,true,ALTA
123,33,92.61,'ALIMENTOS',FEBRERO,4,false,ALTA
29,81,146.91,'MODA',JULIO,9,true,BAJA
142,81,53.03,'DEPORTES',NOVIEMBRE,10,false,BAJA
139,32,72.24,'ALIMENTOS',FEBRERO,3,true,ALTA
10,49,132.57,'ALIMENTOS',JULIO,5,false,BAJA
110,96,124.65,'HOGAR',NOVIEMBRE,8,false,ALTA
99,12,149.81,'HOGAR',OCTUBRE,7,true,ALTA
83,51,146.4,'DEPORTES',ABRIL,3,true,ALTA
67,61,66.6,'ALIMENTOS',ABRIL,3,true,MEDIA
27,50,1.0,'ALIMENTOS',DICIEMBRE,6,true,BAJA
149,77,50.17,'MODA',OCTUBRE,9,true,ALTA
78,88,60.52,'HOGAR',JULIO,0,false,ALTA
143,92,72.47,'ALIMENTOS',OCTUBRE,6,false,ALTA
43,2,6.11,'ELECTRONICA',NOVIEMBRE,0,false,MEDIA
66,31,59.93,'ELECTRONICA',ENERO,1,true,MEDIA
82,17,35.14,'MODA',OCTUBRE,6,true,ALTA
113,5,105.66,'ELECTRONICA',DICIEMBRE,3,true,ALTA
148,39,8.9,'DEPORTES',FEBRERO,10,false,ALTA
133,84,52.64,'DEPORTES',JUNIO,0,true,ALTA
120,43,52.15,'DEPORTES',NOVIEMBRE,8,true,ALTA
79,5,13.89,'MODA',MAYO,6,true,ALTA
57,85,126.02,'ALIMENTOS',SEPTIEMBRE,3,false,MEDIA
17,19,105.96,'DEPORTES',JUNIO,3,false,BAJA
129,60,112.74,'HOGAR',MARZO,5,false,MEDIA
90,33,39.44,'HOGAR',JUNIO,4,false,ALTA
42,38,30.59,'MODA',DICIEMBRE,1,false,MEDIA
45,15,124.51,'MODA',JUNIO,7,true,MEDIA
125,11,13.12,'ALIMENTOS',MAYO,2,true,BAJA
109,10,106.26,'ALIMENTOS',ENERO,1,false,ALTA
119,74,149.33,'ALIMENTOS',MAYO,0,true,ALTA
94,7,47.34,'ALIMENTOS',ABRIL,5,true,MEDIA
87,90,1.23,'DEPORTES',JULIO,3,true,ALTA
75,49,49.71,'HOGAR',ENERO,1,false,ALTA
30,67,23.55,'MODA',ENERO,0,true,BAJA
78,20,81.05,'MODA',DICIEMBRE,7,false,ALTA
105,51,82.78,'MODA',NOVIEMBRE,4,false,ALTA
4,29,48.43,'MODA',NOVIEMBRE,1,true,BAJA
45,1,35.9,'ELECTRONICA',NOVIEMBRE,5,false,MEDIA
115,66,41.84,'ALIMENTOS',JULIO,1,false,ALTA
76,65,87.68,'ELECTRONICA',JULIO,1,true,MEDIA
115,36,30.91,'ALIMENTOS',ABRIL,4,false,MEDIA
56,19,74.76,'ELECTRONICA',ABRIL,7,true,MEDIA
39,59,54.85,'HOGAR',FEBRERO,0,true,MEDIA
18,37,62.51,'ELECTRONICA',DICIEMBRE,9,false,BAJA
125,31,88.81,'MODA',SEPTIEMBRE,6,false,ALTA
120,71,104.16,'DEPORTES',JUNIO,6,true,ALTA
106,13,5.05,'ALIMENTOS',FEBRERO,6,true,BAJA
131,12,30.13,'ALIMENTOS',DICIEMBRE,10,false,ALTA
80,71,86.5,'ELECTRONICA',SEPTIEMBRE,7,true,ALTA
74,24,86.87,'DEPORTES',SEPTIEMBRE,2,true,MEDIA
101,28,1.5,'ALIMENTOS',NOVIEMBRE,7,false,ALTA
9,61,118.57,'DEPORTES',DICIEMBRE,6,true,BAJA
96,96,14.43,'MODA',DICIEMBRE,3,false,ALTA
54,79,67.83,'ALIMENTOS',OCTUBRE,3,false,MEDIA
56,0,136.29,'ELECTRONICA',NOVIEMBRE,2,false,MEDIA
77,97,106.2,'HOGAR',ABRIL,5,true,BAJA
5,84,16.94,'ALIMENTOS',FEBRERO,9,true,BAJA
6,62,88.0,'DEPORTES',ENERO,9,true,BAJA
28,83,119.79,'MODA',SEPTIEMBRE,7,true,BAJA
119,40,143.82,'ELECTRONICA',JULIO,7,false,ALTA
0,43,117.33,'ELECTRONICA',MARZO,10,false,BAJA
11,85,1.59,'ALIMENTOS',SEPTIEMBRE,5,false,BAJA
31,30,118.54,'MODA',ABRIL,10,true,MEDIA
56,67,117.26,'ALIMENTOS',JUNIO,6,true,MEDIA
80,24,88.61,'HOGAR',AGOSTO,6,true,MEDIA
26,84,78.14,'ALIMENTOS',DICIEMBRE,3,false,ALTA
58,50,88.34,'ELECTRONICA',DICIEMBRE,8,false,MEDIA
9,47,41.68,'MODA',JULIO,0,true,BAJA
7,21,28.38,'DEPORTES',DICIEMBRE,9,false,BAJA
24,60,99.26,'HOGAR',NOVIEMBRE,6,true,BAJA
117,9,112.85,'ALIMENTOS',JULIO,6,true,MEDIA
96,48,15.78,'MODA',MARZO,7,true,ALTA
29,55,77.7,'ELECTRONICA',JULIO,4,true,BAJA
17,84,59.13,'ALIMENTOS',OCTUBRE,8,false,BAJA
136,24,73.42,'MODA',ENERO,1,false,ALTA
62,43,43.6,'DEPORTES',JULIO,3,true,MEDIA
19,88,50.53,'DEPORTES',MAYO,8,true,BAJA
87,15,80.09,'ALIMENTOS',OCTUBRE,5,true,ALTA
22,33,78.27,'MODA',DICIEMBRE,10,true,BAJA
50,73,148.97,'ALIMENTOS',ENERO,8,false,MEDIA
63,81,34.07,'HOGAR',ABRIL,1,true,MEDIA
58,67,49.26,'DEPORTES',MARZO,6,true,MEDIA
99,1,64.47,'MODA',ENERO,6,false,ALTA
75,15,131.73,'HOGAR',MARZO,6,false,ALTA
27,21,50.99,'ALIMENTOS',ABRIL,5,true,BAJA
7,53,35.68,'MODA',ENERO,1,false,BAJA
10,70,70.16,'ELECTRONICA',NOVIEMBRE,2,false,BAJA
123,89,19.08,'DEPORTES',FEBRERO,3,false,ALTA
68,63,43.4,'ELECTRONICA',FEBRERO,10,false,ALTA
148,5,2.56,'MODA',NOVIEMBRE,4,false,ALTA
50,79,62.28,'HOGAR',MAYO,3,false,MEDIA
133,49,138.79,'HOGAR',DICIEMBRE,9,true,ALTA
37,14,39.11,'MODA',MAYO,7,false,ALTA
20,49,7.01,'HOGAR',MARZO,8,false,BAJA
94,44,107.08,'ELECTRONICA',MARZO,2,true,ALTA
105,61,3.13,'MODA',ABRIL,4,false,ALTA
35,10,2.06,'HOGAR',ENERO,2,true,MEDIA
62,5,91.58,'DEPORTES',JULIO,1,false,MEDIA
58,25,73.9,'DEPORTES',MAYO,10,false,MEDIA
34,30,36.15,'HOGAR',AGOSTO,3,false,MEDIA
114,56,112.97,'DEPORTES',DICIEMBRE,6,false,ALTA
45,7,87.97,'DEPORTES',NOVIEMBRE,1,false,BAJA
133,80,49.29,'MODA',JULIO,9,false,ALTA
35,59,58.99,'MODA',JULIO,4,false,MEDIA
126,32,73.82,'DEPORTES',ENERO,9,true,ALTA
131,62,49.57,'ELECTRONICA',OCTUBRE,7,false,ALTA
143,88,37.36,'ALIMENTOS',ABRIL,2,true,ALTA
78,77,63.07,'HOGAR',ABRIL,5,true,BAJA
116,83,139.18,'HOGAR',MARZO,3,true,ALTA
85,46,32.17,'HOGAR',ABRIL,7,false,ALTA
127,5,33.72,'HOGAR',SEPTIEMBRE,9,true,ALTA
15,45,75.39,'HOGAR',MARZO,10,false,BAJA
20,93,18.54,'HOGAR',MAYO,2,false,BAJA
147,52,79.12,'DEPORTES',OCTUBRE,2,false,ALTA
62,42,107.82,'ALIMENTOS',NOVIEMBRE,3,false,MEDIA
14,13,119.44,'HOGAR',JUNIO,5,false,BAJA
78,97,29.0,'ELECTRONICA',MARZO,6,true,ALTA
9,67,62.18,'HOGAR',OCTUBRE,10,false,BAJA
16,53,147.68,'MODA',ENERO,10,false,BAJA
95,54,68.82,'DEPORTES',NOVIEMBRE,10,false,ALTA
148,23,71.5,'ELECTRONICA',NOVIEMBRE,2,true,BAJA
97,52,31.98,'ALIMENTOS',SEPTIEMBRE,3,false,ALTA
16,82,47.05,'ALIMENTOS',NOVIEMBRE,5,true,BAJA
94,66,55.55,'MODA',ENERO,1,false,ALTA
43,77,45.54,'HOGAR',ABRIL,0,false,MEDIA
87,71,98.03,'ELECTRONICA',NOVIEMBRE,5,true,BAJA
105,41,27.01,'MODA',FEBRERO,9,true,BAJA
107,20,3.59,'ELECTRONICA',NOVIEMBRE,7,true,MEDIA
54,5,62.14,'HOGAR',FEBRERO,4,true,MEDIA
75,28,6.0,'HOGAR',OCTUBRE,5,true,ALTA
81,9,19.71,'DEPORTES',MAYO,6,false,ALTA
96,63,54.63,'MODA',MAYO,2,true,ALTA
81,44,87.21,'ALIMENTOS',DICIEMBRE,8,false,ALTA
20,14,97.86,'DEPORTES',DICIEMBRE,4,false,BAJA
50,8,102.47,'DEPORTES',AGOSTO,2,false,MEDIA
5,24,25.15,'ALIMENTOS',SEPTIEMBRE,7,false,BAJA
136,3,82.76,'MODA',FEBRERO,8,true,ALTA
11,17,34.3,'MODA',ENERO,7,false,BAJA
113,98,23.32,'HOGAR',ABRIL,4,true,ALTA
129,61,75.79,'MODA',MARZO,6,false,MEDIA
44,90,4.74,'ALIMENTOS',FEBRERO,1,false,MEDIA
121,52,83.62,'ELECTRONICA',MARZO,4,false,ALTA
72,90,95.29,'MODA',JUNIO,8,false,MEDIA
33,0,8.03,'ELECTRONICA',AGOSTO,3,false,MEDIA
109,16,34.88,'DEPORTES',DICIEMBRE,3,false,ALTA
0,88,132.35,'HOGAR',OCTUBRE,4,true,BAJA
77,85,93.68,'MODA',AGOSTO,0,false,ALTA
61,28,50.35,'DEPORTES',OCTUBRE,2,true,MEDIA
36,26,116.77,'ELECTRONICA',JULIO,5,false,MEDIA
26,50,58.87,'ALIMENTOS',JUNIO,10,true,BAJA
74,58,131.16,'ELECTRONICA',SEPTIEMBRE,5,true,BAJA
108,56,92.07,'MODA',JULIO,3,true,ALTA
14,36,140.05,'MODA',ENERO,2,false,BAJA
47,74,37.49,'ELECTRONICA',SEPTIEMBRE,4,false,MEDIA
64,79,14.54,'ELECTRONICA',NOVIEMBRE,6,true,MEDIA
136,12,26.84,'ALIMENTOS',OCTUBRE,8,false,ALTA
130,8,121.99,'MODA',AGOSTO,7,false,BAJA
22,98,14.89,'MODA',ENERO,2,true,BAJA
132,31,149.55,'MODA',FEBRERO,5,true,ALTA
31,8,145.14,'HOGAR',AGOSTO,6,false,MEDIA
45,12,129.39,'DEPORTES',ENERO,2,false,MEDIA
60,85,4.81,'HOGAR',MARZO,3,true,MEDIA
55,53,120.09,'DEPORTES',DICIEMBRE,6,false,MEDIA
60,33,38.41,'DEPORTES',AGOSTO,0,false,MEDIA
116,34,52.59,'HOGAR',NOVIEMBRE,2,false,ALTA
68,91,49.62,'DEPORTES',MAYO,9,true,BAJA
106,80,47.08,'MODA',MAYO,1,false,ALTA
12,89,88.69,'DEPORTES',NOVIEMBRE,6,true,BAJA
119,18,57.35,'MODA',SEPTIEMBRE,3,false,ALTA
27,41,6.01,'MODA',MARZO,5,true,BAJA
50,39,135.27,'DEPORTES',AGOSTO,3,true,MEDIA
32,61,25.78,'MODA',ENERO,0,false,MEDIA
110,59,63.07,'DEPORTES',AGOSTO,3,false,ALTA
54,60,23.56,'ALIMENTOS',MAYO,5,true,MEDIA
62,21,65.38,'HOGAR',OCTUBRE,7,false,MEDIA
38,7,137.95,'DEPORTES',OCTUBRE,10,true,MEDIA
7,19,21.55,'ALIMENTOS',ENERO,0,false,BAJA
99,0,31.27,'MODA',ENERO,1,false,ALTA
140,99,43.32,'ELECTRONICA',OCTUBRE,9,false,ALTA
37,71,48.82,'HOGAR',ABRIL,9,false,MEDIA
104,1,87.53,'ELECTRONICA',ABRIL,2,true,ALTA
65,91,21.86,'ELECTRONICA',JUNIO,0,true,MEDIA
7,19,125.92,'MODA',DICIEMBRE,6,true,BAJA
13,88,74.91,'ELECTRONICA',SEPTIEMBRE,8,false,BAJA
29,35,113.06,'ELECTRONICA',OCTUBRE,4,false,BAJA
65,5,27.51,'ELECTRONICA',JUNIO,7,false,MEDIA
97,32,80.89,'DEPORTES',MARZO,2,true,ALTA
111,44,140.21,'MODA',NOVIEMBRE,2,true,ALTA
30,15,121.79,'DEPORTES',JUNIO,0,false,ALTA
144,80,3.61,'ELECTRONICA',FEBRERO,10,true,ALTA
17,53,113.18,'DEPORTES',AGOSTO,9,false,BAJA
29,18,97.17,'MODA',JULIO,6,true,BAJA
86,21,96.63,'DEPORTES',MAYO,8,true,ALTA
145,2,89.43,'DEPORTES',NOVIEMBRE,4,false,ALTA
32,92,67.39,'ALIMENTOS',NOVIEMBRE,6,false,BAJA
6,31,45.42,'HOGAR',JULIO,1,false,BAJA
3,50,148.47,'HOGAR',AGOSTO,3,true,BAJA
9,86,120.88,'DEPORTES',FEBRERO,9,false,BAJA
129,53,27.23,'ALIMENTOS',OCTUBRE,6,false,ALTA
62,16,147.99,'HOGAR',MAYO,5,false,MEDIA
59,25,119.62,'HOGAR',JULIO,2,false,MEDIA
63,21,1.59,'ELECTRONICA',FEBRERO,5,false,ALTA
141,30,73.27,'HOGAR',FEBRERO,5,true,ALTA
39,19,52.4,'ALIMENTOS',ABRIL,0,false,MEDIA
97,33,61.35,'DEPORTES',ENERO,1,true,ALTA
70,57,64.28,'DEPORTES',ENERO,4,false,MEDIA
146,47,106.3,'HOGAR',OCTUBRE,3,true,ALTA
1,56,72.66,'MODA',AGOSTO,4,true,BAJA
99,22,45.02,'MODA',FEBRERO,2,false,ALTA
29,46,63.22,'HOGAR',SEPTIEMBRE,7,false,BAJA
37,73,15.18,'ALIMENTOS',JULIO,6,false,MEDIA
46,56,5.04,'MODA',ENERO,10,true,MEDIA
15,97,55.83,'ELECTRONICA',DICIEMBRE,6,false,BAJA
66,33,14.59,'ELECTRONICA',DICIEMBRE,1,true,MEDIA
74,66,54.79,'MODA',SEPTIEMBRE,0,false,MEDIA
12,9,5.6,'ALIMENTOS',SEPTIEMBRE,3,false,BAJA
115,67,138.41,'HOGAR',SEPTIEMBRE,7,false,ALTA
137,12,133.5,'ELECTRONICA',SEPTIEMBRE,0,false,ALTA
95,90,129.04,'MODA',FEBRERO,5,false,ALTA
29,65,23.02,'DEPORTES',FEBRERO,5,true,BAJA
148,35,113.83,'ELECTRONICA',ABRIL,9,true,ALTA
28,67,1.95,'ELECTRONICA',MARZO,9,false,BAJA
129,24,3.52,'HOGAR',ENERO,7,false,ALTA
121,51,60.68,'ELECTRONICA',MARZO,7,false,BAJA
113,50,58.13,'HOGAR',JULIO,4,true,BAJA
146,31,70.21,'ALIMENTOS',MARZO,0,false,ALTA
57,50,22.57,'HOGAR',DICIEMBRE,2,false,MEDIA
117,83,109.65,'MODA',NOVIEMBRE,4,false,BAJA
108,61,59.43,'HOGAR',JULIO,3,true,ALTA
26,24,10.78,'ALIMENTOS',JUNIO,1,true,BAJA
129,55,81.45,'MODA',OCTUBRE,1,true,BAJA
115,95,69.41,'ALIMENTOS',JUNIO,6,false,ALTA
1,49,134.32,'HOGAR',NOVIEMBRE,4,false,BAJA
109,71,83.41,'HOGAR',OCTUBRE,3,false,ALTA
94,24,82.93,'ELECTRONICA',JUNIO,10,true,ALTA
71,50,113.66,'DEPORTES',ABRIL,4,false,ALTA
143,87,29.09,'HOGAR',DICIEMBRE,5,true,ALTA
87,36,117.25,'HOGAR',JUNIO,8,false,ALTA
49,74,119.44,'HOGAR',NOVIEMBRE,7,false,MEDIA
47,89,88.71,'ELECTRONICA',OCTUBRE,3,true,MEDIA
94,11,125.34,'MODA',DICIEMBRE,6,false,ALTA
135,86,58.36,'MODA',JUNIO,6,true,ALTA
71,79,39.33,'ELECTRONICA',JULIO,8,false,MEDIA
111,22,98.68,'MODA',MAYO,10,true,ALTA
16,73,22.91,'HOGAR',MAYO,2,false,BAJA
43,58,35.31,'MODA',JUNIO,2,true,MEDIA
3,18,68.63,'ALIMENTOS',NOVIEMBRE,8,false,BAJA
94,86,106.15,'DEPORTES',JULIO,3,false,BAJA
22,98,56.01,'ALIMENTOS',DICIEMBRE,0,true,ALTA
102,3,64.75,'DEPORTES',SEPTIEMBRE,3,false,ALTA
132,79,79.56,'ELECTRONICA',SEPTIEMBRE,3,true,ALTA
59,78,141.57,'DEPORTES',MARZO,3,true,MEDIA
125,75,81.79,'ALIMENTOS',FEBRERO,10,true,ALTA
51,22,127.71,'ALIMENTOS',FEBRERO,3,true,MEDIA
131,23,38.16,'DEPORTES',JULIO,5,true,ALTA
88,98,4.89,'HOGAR',JUNIO,10,true,ALTA
132,39,119.87,'ALIMENTOS',MARZO,6,false,ALTA
89,44,11.02,'ALIMENTOS',JUNIO,6,true,ALTA
16,5,116.8,'HOGAR',FEBRERO,5,false,BAJA
25,78,55.64,'ELECTRONICA',ABRIL,3,false,BAJA
63,58,95.4,'ELECTRONICA',NOVIEMBRE,9,false,MEDIA
0,70,109.89,'MODA',OCTUBRE,1,true,MEDIA
39,90,31.03,'ELECTRONICA',SEPTIEMBRE,5,false,BAJA
18,55,35.98,'ALIMENTOS',NOVIEMBRE,8,false,BAJA
121,67,49.7,'ALIMENTOS',NOVIEMBRE,8,true,ALTA
131,12,82.51,'ALIMENTOS',ENERO,10,true,ALTA
98,74,34.48,'ALIMENTOS',AGOSTO,5,true,ALTA
3,20,97.6,'ELECTRONICA',MARZO,0,true,BAJA
36,59,128.34,'ELECTRONICA',MARZO,2,true,MEDIA
56,73,141.32,'HOGAR',AGOSTO,0,false,MEDIA
58,31,19.26,'HOGAR',JULIO,1,true,MEDIA
97,47,15.05,'MODA',ENERO,0,false,ALTA
19,6,112.14,'HOGAR',MAYO,6,true,BAJA
8,27,144.69,'ALIMENTOS',AGOSTO,10,false,BAJA
49,20,8.79,'MODA',DICIEMBRE,5,false,MEDIA
101,62,142.56,'HOGAR',DICIEMBRE,7,false,ALTA
73,2,39.07,'MODA',JULIO,1,false,MEDIA
99,82,78.43,'MODA',MAYO,6,false,ALTA
96,83,79.25,'DEPORTES',MARZO,7,true,ALTA
126,9,61.84,'DEPORTES',MARZO,9,false,ALTA
147,45,52.79,'MODA',MAYO,0,true,ALTA
103,43,32.47,'MODA',MARZO,9,false,ALTA
130,70,9.3,'MODA',AGOSTO,2,true,ALTA
40,6,118.9,'HOGAR',MAYO,0,true,MEDIA
77,39,120.01,'MODA',AGOSTO,3,true,ALTA
130,24,134.7,'DEPORTES',ABRIL,7,false,BAJA
60,92,1.97,'MODA',MAYO,4,false,MEDIA
83,9,50.86,'ELECTRONICA',MAYO,0,false,ALTA
119,94,23.61,'MODA',AGOSTO,0,false,MEDIA
74,26,42.32,'MODA',SEPTIEMBRE,7,true,MEDIA
1,50,105.36,'HOGAR',NOVIEMBRE,7,true,BAJA
82,13,55.0,'MODA',MAYO,6,true,ALTA
29,80,81.59,'ELECTRONICA',FEBRERO,2,false,ALTA
45,43,62.0,'ELECTRONICA',MAYO,0,true,MEDIA
115,21,139.96,'MODA',FEBRERO,9,false,ALTA
145,16,20.7,'HOGAR',SEPTIEMBRE,6,false,ALTA
75,72,8.79,'ALIMENTOS',JULIO,6,false,ALTA
41,19,64.38,'DEPORTES',OCTUBRE,7,false,MEDIA
18,85,5.42,'DEPORTES',FEBRERO,3,false,BAJA
106,97,13.28,'ELECTRONICA',MAYO,2,false,MEDIA
21,86,139.86,'ELECTRONICA',JUNIO,8,false,BAJA
30,25,67.24,'ALIMENTOS',AGOSTO,8,true,MEDIA
23,99,133.22,'ALIMENTOS',AGOSTO,6,true,BAJA
24,50,128.01,'ALIMENTOS',MAYO,4,true,ALTA
34,72,48.84,'ELECTRONICA',SEPTIEMBRE,0,false,MEDIA
97,24,125.81,'ELECTRONICA',JULIO,4,false,ALTA
91,30,113.51,'MODA',AGOSTO,5,true,BAJA
117,94,57.17,'HOGAR',NOVIEMBRE,3,false,ALTA
65,30,77.6,'DEPORTES',AGOSTO,9,true,MEDIA
76,68,127.77,'ALIMENTOS',NOVIEMBRE,5,true,BAJA
19,84,139.06,'ALIMENTOS',SEPTIEMBRE,1,false,BAJA
122,3,8.32,'ELECTRONICA',JULIO,7,true,ALTA
52,99,127.1,'HOGAR',MARZO,5,false,MEDIA
48,10,85.87,'HOGAR',AGOSTO,9,false,MEDIA
93,28,21.6,'MODA',JULIO,7,true,ALTA
92,8,31.61,'HOGAR',MARZO,8,false,ALTA
63,8,51.6,'DEPORTES',NOVIEMBRE,9,true,MEDIA
18,36,12.13,'MODA',MARZO,1,true,BAJA
67,47,55.81,'MODA',DICIEMBRE,10,true,MEDIA
34,27,129.58,'ALIMENTOS',NOVIEMBRE,3,true,MEDIA
124,96,3.62,'HOGAR',ENERO,1,false,ALTA
17,52,130.46,'ALIMENTOS',JULIO,8,false,BAJA
6,76,41.75,'ELECTRONICA',JULIO,7,false,BAJA
49,83,36.18,'ALIMENTOS',AGOSTO,3,true,MEDIA
47,88,128.36,'HOGAR',SEPTIEMBRE,5,true,MEDIA
30,91,62.45,'MODA',ABRIL,9,false,MEDIA
108,65,69.02,'HOGAR',JUNIO,9,false,ALTA
57,45,18.89,'DEPORTES',JULIO,4,false,BAJA
58,68,140.31,'ELECTRONICA',FEBRERO,2,true,MEDIA
101,36,123.56,'ALIMENTOS',DICIEMBRE,4,false,MEDIA
138,48,141.46,'HOGAR',SEPTIEMBRE,8,false,ALTA
149,58,118.1,'DEPORTES',ABRIL,4,true,ALTA
88,74,25.98,'HOGAR',DICIEMBRE,2,false,MEDIA
73,67,78.53,'ALIMENTOS',ENERO,2,true,MEDIA
102,0,126.6,'ALIMENTOS',JULIO,1,false,BAJA
97,41,35.89,'ELECTRONICA',OCTUBRE,8,false,ALTA
56,90,18.54,'MODA',NOVIEMBRE,5,true,MEDIA
22,6,136.9,'MODA',NOVIEMBRE,0,false,BAJA
134,73,68.31,'MODA',DICIEMBRE,7,true,ALTA
131,92,146.22,'HOGAR',JUNIO,7,false,ALTA
126,77,1.54,'ALIMENTOS',MAYO,4,true,ALTA
35,79,6.04,'MODA',JUNIO,9,true,MEDIA
117,24,61.97,'DEPORTES',ABRIL,2,true,ALTA
131,39,48.98,'ELECTRONICA',JULIO,6,false,ALTA
94,70,19.56,'MODA',SEPTIEMBRE,3,true,ALTA
32,80,113.68,'MODA',FEBRERO,10,true,MEDIA
53,22,35.92,'HOGAR',MAYO,3,false,MEDIA
36,6,1.98,'MODA',ENERO,3,false,MEDIA
108,70,149.84,'MODA',AGOSTO,0,false,ALTA
85,11,136.38,'MODA',ABRIL,8,false,ALTA
63,55,132.84,'MODA',MAYO,9,false,MEDIA
122,12,6.59,'DEPORTES',JULIO,2,true,ALTA
58,20,82.68,'MODA',ENERO,3,false,MEDIA
93,84,61.99,'ALIMENTOS',NOVIEMBRE,9,false,ALTA
150,96,58.56,'DEPORTES',JUNIO,6,false,ALTA
13,8,78.97,'MODA',JULIO,10,true,BAJA
54,38,77.44,'DEPORTES',ENERO,9,false,MEDIA
80,53,127.3,'ALIMENTOS',JULIO,2,false,ALTA
100,76,59.92,'DEPORTES',JUNIO,4,false,ALTA
144,75,132.54,'ALIMENTOS',OCTUBRE,5,true,ALTA
35,52,48.3,'HOGAR',MARZO,3,false,MEDIA
135,83,115.46,'MODA',NOVIEMBRE,3,false,ALTA
3,42,106.52,'HOGAR',OCTUBRE,0,true,BAJA
95,82,116.97,'ELECTRONICA',SEPTIEMBRE,9,false,ALTA
58,69,72.31,'DEPORTES',AGOSTO,4,false,MEDIA
138,96,26.03,'ALIMENTOS',AGOSTO,5,false,ALTA
128,95,52.67,'MODA',ABRIL,2,true,ALTA
143,49,98.79,'ALIMENTOS',JUNIO,7,false,ALTA
82,47,113.95,'HOGAR',ENERO,9,false,ALTA
18,59,35.76,'ALIMENTOS',JUNIO,9,true,BAJA
53,71,32.37,'DEPORTES',MARZO,7,false,MEDIA
111,85,32.55,'ALIMENTOS',NOVIEMBRE,1,true,BAJA
2,48,108.84,'DEPORTES',FEBRERO,9,false,BAJA
44,96,108.5,'DEPORTES',MAYO,4,false,MEDIA
146,69,62.02,'MODA',ABRIL,3,false,ALTA
90,60,4.2,'DEPORTES',DICIEMBRE,9,true,ALTA
61,56,119.51,'ALIMENTOS',FEBRERO,1,false,MEDIA
37,91,28.36,'DEPORTES',ENERO,3,true,MEDIA
36,86,19.06,'ALIMENTOS',FEBRERO,10,false,MEDIA
129,50,132.84,'DEPORTES',FEBRERO,9,true,ALTA
42,78,104.44,'DEPORTES',JUNIO,5,false,MEDIA
75,42,145.22,'DEPORTES',JUNIO,8,false,ALTA
128,23,141.5,'HOGAR',DICIEMBRE,6,true,ALTA
78,15,2.45,'HOGAR',JUNIO,1,false,ALTA
13,24,148.06,'ELECTRONICA',AGOSTO,1,false,MEDIA
121,58,125.98,'HOGAR',ABRIL,1,false,ALTA
138,32,15.51,'DEPORTES',MAYO,9,true,ALTA
75,18,55.21,'HOGAR',NOVIEMBRE,5,true,BAJA
22,42,95.64,'ALIMENTOS',NOVIEMBRE,7,true,BAJA
2,0,114.6,'HOGAR',NOVIEMBRE,10,true,BAJA
126,79,47.43,'HOGAR',JULIO,8,false,ALTA
64,55,65.22,'MODA',OCTUBRE,3,false,BAJA
55,64,60.25,'MODA',AGOSTO,4,false,MEDIA
23,25,58.37,'MODA',NOVIEMBRE,4,true,MEDIA
2,43,47.21,'ELECTRONICA',MARZO,8,true,BAJA
35,5,140.75,'MODA',MARZO,5,false,MEDIA
119,87,91.81,'MODA',AGOSTO,4,false,ALTA
52,61,106.17,'ALIMENTOS',FEBRERO,1,true,BAJA
148,18,22.63,'HOGAR',ABRIL,4,true,ALTA
75,28,105.94,'HOGAR',NOVIEMBRE,10,false,ALTA
38,39,67.46,'MODA',AGOSTO,0,true,MEDIA
150,53,31.33,'ALIMENTOS',JUNIO,7,true,BAJA
130,46,148.56,'HOGAR',FEBRERO,7,true,BAJA
97,37,71.9,'DEPORTES',AGOSTO,3,true,ALTA
131,59,104.09,'DEPORTES',ENERO,3,true,ALTA
113,71,105.99,'ALIMENTOS',ABRIL,0,true,ALTA
56,16,23.78,'DEPORTES',MARZO,6,false,MEDIA
91,32,144.54,'MODA',ABRIL,0,true,ALTA
76,14,125.65,'ELECTRONICA',MAYO,9,true,ALTA
90,12,71.04,'ELECTRONICA',FEBRERO,8,true,ALTA
54,89,100.19,'ALIMENTOS',AGOSTO,9,false,MEDIA
103,29,96.25,'MODA',MARZO,1,true,BAJA
117,70,110.98,'ALIMENTOS',MAYO,6,true,ALTA
33,37,118.4,'MODA',MARZO,3,true,MEDIA
135,24,81.92,'DEPORTES',AGOSTO,8,false,ALTA
36,53,108.42,'DEPORTES',SEPTIEMBRE,6,false,BAJA
102,85,53.84,'ELECTRONICA',MARZO,3,true,MEDIA
10,20,70.42,'HOGAR',DICIEMBRE,10,true,BAJA
69,40,74.18,'MODA',FEBRERO,8,true,MEDIA
61,16,96.53,'ALIMENTOS',JUNIO,4,true,BAJA
71,44,66.82,'ELECTRONICA',JULIO,4,false,MEDIA
86,47,68.36,'DEPORTES',AGOSTO,7,false,ALTA
147,22,116.9,'ALIMENTOS',MAYO,7,true,ALTA
62,96,93.45,'MODA',JUNIO,3,false,MEDIA
77,6,146.8,'MODA',ABRIL,5,true,ALTA
55,91,116.04,'MODA',OCTUBRE,0,true,MEDIA
5,90,47.89,'ALIMENTOS',SEPTIEMBRE,0,false,ALTA
66,19,4.17,'ALIMENTOS',NOVIEMBRE,8,false,MEDIA
40,80,79.67,'MODA',ABRIL,1,true,BAJA
27,88,9.0,'MODA',FEBRERO,0,true,BAJA
57,84,26.6,'MODA',JUNIO,6,false,MEDIA
150,77,15.03,'DEPORTES',MARZO,1,false,ALTA
111,30,21.05,'DEPORTES',AGOSTO,6,false,BAJA
81,66,21.56,'ALIMENTOS',AGOSTO,7,false,ALTA
65,50,22.62,'ALIMENTOS',JULIO,10,false,MEDIA
55,71,131.41,'ELECTRONICA',DICIEMBRE,0,false,MEDIA
85,65,106.06,'ALIMENTOS',JULIO,1,false,ALTA
148,34,103.82,'HOGAR',ABRIL,7,true,ALTA
121,22,28.55,'HOGAR',JULIO,6,true,ALTA
19,9,139.25,'ELECTRONICA',MARZO,9,false,BAJA
28,20,83.8,'DEPORTES',JULIO,4,true,BAJA
109,73,12.48,'ELECTRONICA',SEPTIEMBRE,4,true,ALTA
69,76,100.29,'HOGAR',OCTUBRE,6,true,MEDIA
44,41,73.51,'DEPORTES',FEBRERO,2,true,MEDIA
73,36,94.62,'ALIMENTOS',AGOSTO,0,true,MEDIA
38,99,142.78,'DEPORTES',NOVIEMBRE,1,true,MEDIA
18,86,74.96,'ALIMENTOS',NOVIEMBRE,6,true,ALTA
139,30,16.67,'HOGAR',AGOSTO,4,false,ALTA
50,84,1.63,'MODA',ENERO,10,false,MEDIA
141,87,102.67,'ALIMENTOS',FEBRERO,9,false,ALTA
81,78,121.84,'ELECTRONICA',MARZO,4,false,ALTA
146,59,7.46,'ALIMENTOS',MAYO,8,false,ALTA
101,80,108.4,'MODA',AGOSTO,9,false,ALTA
31,19,98.9,'DEPORTES',NOVIEMBRE,3,true,MEDIA
138,60,145.6,'ELECTRONICA',JULIO,0,true,ALTA
113,95,85.93,'HOGAR',NOVIEMBRE,1,false,ALTA
129,84,77.92,'ALIMENTOS',NOVIEMBRE,3,false,ALTA
143,15,122.07,'DEPORTES',JUNIO,0,true,BAJA
66,46,51.35,'DEPORTES',JUNIO,4,true,MEDIA
0,0,23.86,'ALIMENTOS',DICIEMBRE,9,false,BAJA
83,45,23.62,'MODA',FEBRERO,5,false,ALTA
110,92,42.5,'DEPORTES',AGOSTO,4,false,ALTA
26,7,34.16,'MODA',ENERO,4,false,MEDIA
93,17,115.46,'ALIMENTOS',MAYO,5,false,ALTA
59,5,3.96,'ELECTRONICA',JULIO,5,false,MEDIA
29,97,4.01,'ALIMENTOS',NOVIEMBRE,9,false,BAJA
63,54,116.99,'HOGAR',JULIO,5,false,MEDIA
8,41,91.12,'DEPORTES',OCTUBRE,0,false,BAJA
137,45,103.03,'DEPORTES',MAYO,1,false,ALTA
11,92,130.43,'ELECTRONICA',FEBRERO,5,true,BAJA
138,38,76.11,'MODA',SEPTIEMBRE,2,false,ALTA
88,78,122.31,'ELECTRONICA',DICIEMBRE,3,false,ALTA
61,99,90.86,'ALIMENTOS',SEPTIEMBRE,0,true,MEDIA
24,43,97.19,'DEPORTES',ENERO,1,false,BAJA
104,16,130.43,'ALIMENTOS',ENERO,8,true,ALTA
101,86,10.4,'ELECTRONICA',AGOSTO,0,false,ALTA
59,31,149.45,'ELECTRONICA',MAYO,7,false,MEDIA
80,32,123.14,'ELECTRONICA',NOVIEMBRE,3,false,ALTA
88,21,102.76,'HOGAR',SEPTIEMBRE,1,true,ALTA
80,18,11.11,'ALIMENTOS',MAYO,1,false,ALTA
142,98,32.33,'ELECTRONICA',FEBRERO,3,false,ALTA
125,62,1.81,'ALIMENTOS',OCTUBRE,2,true,ALTA
104,20,70.02,'ELECTRONICA',JULIO,6,true,ALTA
23,35,6.26,'ALIMENTOS',NOVIEMBRE,1,true,BAJA
43,86,1.81,'MODA',DICIEMBRE,1,false,MEDIA
119,89,45.86,'MODA',JUNIO,5,false,ALTA
78,14,35.31,'ALIMENTOS',JULIO,3,false,ALTA
76,99,12.26,'ELECTRONICA',FEBRERO,2,false,MEDIA
52,66,77.61,'MODA',ENERO,2,false,ALTA
63,67,143.2,'MODA',MAYO,6,false,MEDIA
143,93,59.51,'ALIMENTOS',FEBRERO,3,false,ALTA
57,100,58.3,'HOGAR',ABRIL,4,false,MEDIA
81,55,32.15,'DEPORTES',ENERO,0,false,ALTA
128,7,24.07,'DEPORTES',NOVIEMBRE,8,false,ALTA
49,30,48.09,'MODA',MAYO,6,false,MEDIA
89,72,36.25,'DEPORTES',JUNIO,4,true,ALTA
43,97,77.28,'ALIMENTOS',JUNIO,9,true,MEDIA
26,6,37.88,'ELECTRONICA',DICIEMBRE,10,true,BAJA
102,48,126.52,'ALIMENTOS',NOVIEMBRE,3,true,ALTA
27,48,70.32,'DEPORTES',SEPTIEMBRE,0,false,BAJA
131,95,105.03,'ELECTRONICA',NOVIEMBRE,0,true,ALTA
128,26,56.7,'DEPORTES',MARZO,9,true,ALTA
33,41,64.54,'HOGAR',MARZO,1,false,MEDIA
96,21,75.71,'MODA',SEPTIEMBRE,6,true,ALTA
50,91,96.73,'DEPORTES',FEBRERO,5,false,MEDIA
139,16,92.09,'ELECTRONICA',FEBRERO,4,false,MEDIA
97,64,93.68,'MODA',DICIEMBRE,8,false,ALTA
66,49,23.29,'ELECTRONICA',ENERO,1,true,MEDIA
23,21,114.31,'HOGAR',OCTUBRE,6,false,BAJA
149,21,16.55,'DEPORTES',ABRIL,2,true,MEDIA
106,37,23.45,'ALIMENTOS',AGOSTO,8,true,ALTA
130,99,45.7,'MODA',OCTUBRE,6,false,ALTA
28,53,44.64,'ALIMENTOS',FEBRERO,3,false,BAJA
116,15,104.51,'MODA',ABRIL,7,true,ALTA
70,61,25.63,'DEPORTES',NOVIEMBRE,7,false,MEDIA
143,27,84.38,'ELECTRONICA',OCTUBRE,1,false,ALTA
150,67,137.54,'HOGAR',MAYO,8,true,ALTA
141,86,32.65,'HOGAR',NOVIEMBRE,1,false,ALTA
138,75,33.61,'HOGAR',FEBRERO,8,true,ALTA
81,90,40.91,'MODA',JUNIO,1,true,BAJA
6,7,59.69,'ALIMENTOS',MAYO,5,true,BAJA
76,22,121.62,'MODA',DICIEMBRE,9,true,ALTA
55,69,129.6,'HOGAR',ENERO,10,true,MEDIA
22,45,67.31,'MODA',FEBRERO,0,false,BAJA
9,96,90.91,'ELECTRONICA',NOVIEMBRE,0,false,BAJA
24,65,114.28,'DEPORTES',SEPTIEMBRE,5,false,BAJA
127,71,109.9,'DEPORTES',NOVIEMBRE,1,true,ALTA
131,32,54.32,'DEPORTES',JULIO,1,false,ALTA
112,93,129.3,'MODA',JUNIO,10,true,MEDIA
88,40,47.21,'MODA',SEPTIEMBRE,2,false,ALTA
138,42,15.68,'DEPORTES',JULIO,5,true,ALTA
144,71,97.33,'HOGAR',ENERO,5,true,ALTA
58,34,55.91,'ELECTRONICA',ABRIL,4,false,ALTA
16,89,82.62,'DEPORTES',JUNIO,9,true,BAJA
44,18,16.74,'ALIMENTOS',SEPTIEMBRE,4,true,MEDIA
133,85,30.63,'ALIMENTOS',NOVIEMBRE,3,true,ALTA
100,10,149.94,'HOGAR',OCTUBRE,10,false,ALTA
55,66,103.66,'ELECTRONICA',ENERO,9,true,BAJA
117,62,18.91,'ALIMENTOS',ABRIL,8,true,ALTA
121,79,22.41,'ALIMENTOS',OCTUBRE,8,false,ALTA
31,59,102.94,'ALIMENTOS',MAYO,10,true,MEDIA
143,71,137.21,'ELECTRONICA',ABRIL,7,true,ALTA
63,92,6.04,'ELECTRONICA',OCTUBRE,7,true,BAJA
137,67,24.65,'DEPORTES',JUNIO,1,true,ALTA
135,45,133.73,'MODA',OCTUBRE,2,true,ALTA
142,13,62.32,'ELECTRONICA',OCTUBRE,3,false,ALTA
41,9,121.82,'HOGAR',DICIEMBRE,4,false,MEDIA
42,94,3.41,'ALIMENTOS',NOVIEMBRE,0,true,MEDIA
113,86,76.16,'MODA',FEBRERO,10,true,ALTA
105,74,30.85,'ALIMENTOS',AGOSTO,4,true,ALTA
61,55,107.63,'DEPORTES',ABRIL,9,true,MEDIA
56,61,106.86,'ELECTRONICA',ABRIL,0,true,MEDIA
77,70,45.23,'ELECTRONICA',NOVIEMBRE,6,true,ALTA
134,19,43.96,'HOGAR',JULIO,6,false,ALTA
135,7,15.74,'HOGAR',FEBRERO,2,true,ALTA
2,39,61.65,'ALIMENTOS',JUNIO,3,false,BAJA
98,42,49.29,'ALIMENTOS',JUNIO,3,false,ALTA
82,96,60.77,'ALIMENTOS',FEBRERO,7,true,ALTA
68,22,74.05,'MODA',JUNIO,8,false,MEDIA
108,42,104.65,'DEPORTES',DICIEMBRE,10,true,BAJA
142,1,58.46,'MODA',MAYO,8,true,ALTA
83,6,116.39,'HOGAR',MAYO,0,false,ALTA
72,18,132.77,'MODA',JULIO,0,true,MEDIA
77,15,5.3,'MODA',DICIEMBRE,1,false,ALTA
133,88,145.76,'DEPORTES',JUNIO,8,false,ALTA
79,21,70.43,'ELECTRONICA',MAYO,4,true,ALTA
106,76,71.12,'ELECTRONICA',DICIEMBRE,5,false,ALTA
0,83,62.09,'ALIMENTOS',DICIEMBRE,3,false,BAJA
62,10,16.96,'MODA',MARZO,7,false,MEDIA
57,89,82.19,'ALIMENTOS',SEPTIEMBRE,0,true,MEDIA
76,36,33.6,'ELECTRONICA',NOVIEMBRE,2,false,ALTA
142,40,139.26,'MODA',MARZO,5,true,ALTA
3,34,35.94,'ELECTRONICA',OCTUBRE,3,true,BAJA
27,90,63.28,'HOGAR',OCTUBRE,8,false,BAJA
2,74,109.39,'DEPORTES',NOVIEMBRE,3,true,BAJA
124,26,9.02,'DEPORTES',SEPTIEMBRE,7,false,ALTA
132,45,77.79,'ALIMENTOS',MARZO,8,false,ALTA
117,39,52.12,'ALIMENTOS',FEBRERO,8,false,ALTA
41,14,85.02,'DEPORTES',JULIO,7,false,MEDIA
15,16,20.17,'ELECTRONICA',FEBRERO,1,false,BAJA
18,31,136.52,'DEPORTES',ABRIL,3,true,BAJA
51,90,61.39,'ALIMENTOS',OCTUBRE,8,false,MEDIA
52,34,21.87,'HOGAR',ENERO,6,true,MEDIA
24,97,61.7,'DEPORTES',ABRIL,6,true,BAJA
98,82,80.83,'DEPORTES',OCTUBRE,1,true,ALTA
70,7,1.28,'HOGAR',SEPTIEMBRE,10,true,MEDIA
148,88,99.41,'ELECTRONICA',SEPTIEMBRE,7,true,ALTA
145,57,85.21,'ALIMENTOS',NOVIEMBRE,10,false,ALTA
50,33,64.29,'DEPORTES',AGOSTO,9,false,MEDIA
7,96,9.06,'DEPORTES',MAYO,1,false,MEDIA
8,12,119.5,'ALIMENTOS',DICIEMBRE,4,true,BAJA
73,40,147.57,'MODA',MAYO,5,true,MEDIA
114,36,14.7,'HOGAR',AGOSTO,6,true,ALTA
149,97,16.0,'ALIMENTOS',SEPTIEMBRE,0,false,ALTA
135,86,4.98,'ELECTRONICA',NOVIEMBRE,1,true,BAJA
38,97,100.12,'HOGAR',ABRIL,4,false,MEDIA
2,15,134.61,'DEPORTES',ENERO,6,false,BAJA
53,56,56.82,'DEPORTES',ENERO,7,true,MEDIA
11,69,52.53,'DEPORTES',OCTUBRE,2,false,BAJA
94,6,20.91,'MODA',AGOSTO,5,true,ALTA
65,48,8.6,'ELECTRONICA',JUNIO,10,false,MEDIA
147,17,115.75,'ELECTRONICA',SEPTIEMBRE,3,false,ALTA
97,48,24.01,'ELECTRONICA',ABRIL,10,false,ALTA
121,59,41.91,'ALIMENTOS',AGOSTO,7,false,ALTA
73,21,90.75,'DEPORTES',AGOSTO,3,false,MEDIA
145,100,10.2,'HOGAR',OCTUBRE,10,false,ALTA
110,99,109.76,'ALIMENTOS',DICIEMBRE,4,true,ALTA
100,90,24.12,'ELECTRONICA',AGOSTO,8,false,ALTA
58,60,69.77,'MODA',MAYO,2,true,MEDIA
107,35,51.62,'DEPORTES',OCTUBRE,1,true,ALTA
103,70,63.96,'DEPORTES',NOVIEMBRE,1,false,ALTA
66,85,55.28,'ELECTRONICA',OCTUBRE,8,true,BAJA
142,90,143.42,'HOGAR',SEPTIEMBRE,10,true,ALTA
67,37,71.09,'HOGAR',JULIO,4,true,MEDIA
130,59,27.64,'ELECTRONICA',ABRIL,8,true,ALTA
129,71,145.58,'MODA',OCTUBRE,0,false,ALTA
140,88,136.95,'ALIMENTOS',NOVIEMBRE,0,true,ALTA
128,66,66.63,'ELECTRONICA',DICIEMBRE,1,false,ALTA
38,86,66.68,'ALIMENTOS',JULIO,3,false,ALTA
121,35,51.67,'MODA',AGOSTO,4,true,ALTA
105,42,72.11,'MODA',AGOSTO,2,false,ALTA
103,85,36.54,'ALIMENTOS',JUNIO,9,true,ALTA
110,100,33.74,'ELECTRONICA',ABRIL,1,false,ALTA
110,80,77.44,'HOGAR',OCTUBRE,3,true,ALTA
84,26,55.76,'HOGAR',MARZO,0,false,ALTA
20,18,132.37,'ELECTRONICA',ABRIL,8,false,BAJA
43,55,97.25,'DEPORTES',DICIEMBRE,1,true,MEDIA
97,76,29.29,'MODA',SEPTIEMBRE,6,false,ALTA
16,61,44.4,'HOGAR',JULIO,1,true,BAJA
99,65,35.86,'ELECTRONICA',JUNIO,6,true,ALTA
113,2,36.77,'ELECTRONICA',FEBRERO,0,true,ALTA
57,100,134.78,'DEPORTES',NOVIEMBRE,1,true,ALTA
21,28,42.29,'MODA',MARZO,3,true,BAJA
116,59,37.44,'ELECTRONICA',AGOSTO,7,true,ALTA
64,72,52.17,'ALIMENTOS',NOVIEMBRE,8,true,MEDIA
84,47,24.57,'ALIMENTOS',AGOSTO,3,true,ALTA
121,52,83.65,'DEPORTES',JUNIO,3,false,ALTA
25,8,98.34,'ALIMENTOS',JUNIO,4,false,BAJA
81,59,107.88,'ELECTRONICA',FEBRERO,10,false,ALTA
77,23,110.59,'DEPORTES',SEPTIEMBRE,3,false,ALTA
32,16,146.53,'ELECTRONICA',NOVIEMBRE,1,true,MEDIA
107,98,93.06,'ELECTRONICA',ABRIL,9,false,ALTA
6,16,91.76,'DEPORTES',DICIEMBRE,9,true,BAJA
8,76,134.34,'HOGAR',MAYO,10,true,BAJA
86,66,83.96,'ELECTRONICA',ABRIL,4,true,ALTA
143,72,126.89,'MODA',FEBRERO,6,true,ALTA
54,17,129.94,'HOGAR',JULIO,1,true,MEDIA
40,2,42.56,'MODA',OCTUBRE,9,false,MEDIA
98,21,126.78,'HOGAR',OCTUBRE,6,false,ALTA
51,45,86.61,'MODA',MAYO,10,true,MEDIA
115,48,15.88,'MODA',OCTUBRE,2,true,MEDIA
32,18,115.89,'HOGAR',FEBRERO,8,true,MEDIA
84,32,78.2,'MODA',AGOSTO,10,false,ALTA
35,45,141.7,'HOGAR',ENERO,8,true,MEDIA
122,24,50.9,'HOGAR',ABRIL,4,true,ALTA
23,91,130.19,'DEPORTES',ENERO,6,false,BAJA
69,76,83.56,'ALIMENTOS',MAYO,0,true,MEDIA
24,28,34.67,'ELECTRONICA',ABRIL,9,false,MEDIA
8,13,118.1,'HOGAR',JUNIO,5,false,BAJA
118,69,48.55,'ALIMENTOS',JULIO,9,false,ALTA
79,76,93.47,'DEPORTES',ABRIL,5,false,ALTA
122,41,143.3,'MODA',ENERO,7,false,ALTA
109,83,144.65,'HOGAR',OCTUBRE,9,false,ALTA
77,42,121.53,'ELECTRONICA',DICIEMBRE,0,false,ALTA
99,9,85.55,'HOGAR',MARZO,9,false,ALTA
122,48,33.68,'DEPORTES',SEPTIEMBRE,3,true,ALTA
7,41,13.78,'ALIMENTOS',OCTUBRE,8,false,BAJA
53,79,23.14,'ALIMENTOS',MAYO,8,false,MEDIA
51,92,137.61,'HOGAR',NOVIEMBRE,4,false,MEDIA
125,55,27.7,'DEPORTES',OCTUBRE,9,true,ALTA
80,47,91.45,'MODA',MAYO,0,false,ALTA
70,14,84.69,'ALIMENTOS',DICIEMBRE,3,false,MEDIA
69,0,97.55,'DEPORTES',MARZO,9,false,MEDIA
36,20,69.59,'DEPORTES',MAYO,8,true,MEDIA
23,65,32.87,'ELECTRONICA',DICIEMBRE,4,true,BAJA
6,3,109.1,'MODA',JULIO,0,true,BAJA
110,72,144.94,'DEPORTES',FEBRERO,7,false,ALTA
113,32,32.01,'ALIMENTOS',MAYO,1,false,ALTA
145,1,42.59,'DEPORTES',JUNIO,10,false,ALTA
47,34,100.29,'MODA',AGOSTO,8,false,MEDIA
117,74,73.41,'ELECTRONICA',MARZO,9,false,ALTA
84,83,104.01,'MODA',MAYO,5,true,ALTA
118,98,78.39,'ELECTRONICA',JUNIO,6,false,ALTA
9,13,5.93,'ALIMENTOS',AGOSTO,0,true,BAJA
5,53,89.47,'HOGAR',JUNIO,6,false,BAJA
14,62,13.2,'HOGAR',JULIO,9,true,BAJA
113,12,52.02,'MODA',MARZO,0,true,ALTA
15,61,87.95,'HOGAR',OCTUBRE,0,false,BAJA
134,1,51.51,'DEPORTES',DICIEMBRE,6,true,BAJA
53,45,88.22,'MODA',NOVIEMBRE,8,false,MEDIA
16,69,127.91,'DEPORTES',AGOSTO,9,true,ALTA
72,59,140.86,'ELECTRONICA',FEBRERO,2,true,MEDIA
12,34,136.25,'DEPORTES',ABRIL,4,false,MEDIA
69,97,124.04,'DEPORTES',FEBRERO,4,true,MEDIA
78,88,95.83,'ELECTRONICA',SEPTIEMBRE,10,true,ALTA
92,44,9.54,'DEPORTES',MAYO,0,false,ALTA
29,38,121.39,'MODA',JULIO,1,false,BAJA
75,37,81.6,'ELECTRONICA',NOVIEMBRE,6,true,BAJA
10,33,13.11,'MODA',FEBRERO,9,false,BAJA
119,76,149.98,'ELECTRONICA',ABRIL,2,true,MEDIA
70,34,4.4,'MODA',SEPTIEMBRE,5,false,MEDIA
141,58,65.12,'ELECTRONICA',ABRIL,3,true,ALTA
148,58,17.31,'MODA',DICIEMBRE,1,false,ALTA
37,68,89.1,'ELECTRONICA',AGOSTO,5,true,MEDIA
132,21,129.41,'ELECTRONICA',OCTUBRE,6,false,ALTA
42,98,113.84,'HOGAR',MARZO,1,true,MEDIA
93,48,56.62,'ELECTRONICA',SEPTIEMBRE,2,true,ALTA
63,31,80.17,'ALIMENTOS',FEBRERO,8,true,BAJA
12,48,127.92,'HOGAR',AGOSTO,10,false,BAJA
40,50,134.32,'DEPORTES',ENERO,7,false,MEDIA
53,75,50.86,'ALIMENTOS',DICIEMBRE,4,false,BAJA
74,51,3.43,'HOGAR',MAYO,0,true,BAJA
130,20,108.72,'HOGAR',OCTUBRE,8,true,ALTA
48,17,141.71,'MODA',ABRIL,6,true,MEDIA
129,33,24.36,'MODA',JULIO,1,true,ALTA
33,31,91.19,'DEPORTES',MARZO,1,false,MEDIA
0,12,87.89,'DEPORTES',JULIO,10,true,BAJA
57,53,6.89,'ELECTRONICA',OCTUBRE,1,true,ALTA
141,71,15.84,'HOGAR',JUNIO,2,false,ALTA
126,67,37.13,'HOGAR',ENERO,8,true,ALTA
121,24,25.21,'DEPORTES',JULIO,0,false,ALTA
99,22,4.35,'MODA',OCTUBRE,0,false,ALTA
80,35,111.47,'MODA',SEPTIEMBRE,2,false,ALTA
15,59,140.9,'HOGAR',JULIO,10,false,BAJA
4,51,43.5,'MODA',ENERO,9,true,BAJA
37,8,121.79,'ELECTRONICA',JULIO,6,true,MEDIA
63,60,143.29,'ALIMENTOS',OCTUBRE,10,false,MEDIA
120,31,34.52,'ALIMENTOS',AGOSTO,7,true,ALTA
79,8,15.32,'ALIMENTOS',ABRIL,6,false,ALTA
118,70,128.66,'DEPORTES',MARZO,6,false,ALTA
11,19,127.85,'ALIMENTOS',MARZO,5,false,BAJA
9,44,120.14,'ELECTRONICA',OCTUBRE,5,true,BAJA
13,28,17.58,'ALIMENTOS',NOVIEMBRE,1,true,BAJA
134,67,67.55,'MODA',JULIO,6,true,ALTA
90,91,15.4,'DEPORTES',DICIEMBRE,8,true,ALTA
90,49,116.57,'ALIMENTOS',OCTUBRE,10,false,BAJA
15,33,66.88,'MODA',SEPTIEMBRE,3,false,BAJA
48,87,61.15,'ELECTRONICA',SEPTIEMBRE,4,true,MEDIA
80,47,65.38,'MODA',MARZO,4,false,BAJA
17,13,59.9,'HOGAR',MARZO,8,true,BAJA
6,94,101.73,'DEPORTES',JUNIO,2,true,BAJA
141,23,21.61,'DEPORTES',ENERO,10,true,ALTA
79,24,134.17,'MODA',FEBRERO,8,false,ALTA
11,14,132.85,'HOGAR',DICIEMBRE,10,false,BAJA
145,12,78.53,'ELECTRONICA',MARZO,3,true,ALTA
36,55,30.97,'DEPORTES',JUNIO,0,false,MEDIA
108,21,124.67,'MODA',AGOSTO,7,true,ALTA
112,12,107.99,'MODA',JUNIO,7,true,ALTA
99,7,65.48,'HOGAR',OCTUBRE,6,false,ALTA
108,20,76.41,'ELECTRONICA',SEPTIEMBRE,3,false,ALTA
31,46,76.34,'ALIMENTOS',JULIO,4,true,MEDIA
46,92,20.56,'MODA',JULIO,7,true,ALTA
120,89,76.24,'HOGAR',DICIEMBRE,2,false,ALTA
147,63,148.06,'HOGAR',JULIO,3,true,MEDIA
148,49,8.14,'DEPORTES',ENERO,1,false,ALTA
98,99,89.86,'MODA',AGOSTO,6,true,ALTA
82,12,114.41,'ELECTRONICA',NOVIEMBRE,6,true,ALTA
140,61,76.12,'ALIMENTOS',OCTUBRE,2,true,MEDIA
136,40,43.3,'DEPORTES',FEBRERO,5,true,ALTA
72,44,55.5,'DEPORTES',NOVIEMBRE,9,false,MEDIA
135,46,105.75,'HOGAR',SEPTIEMBRE,3,true,ALTA
43,20,24.33,'ELECTRONICA',OCTUBRE,3,false,MEDIA
149,7,107.31,'HOGAR',MAYO,2,true,ALTA
73,74,49.49,'HOGAR',OCTUBRE,7,true,BAJA
112,81,46.63,'ELECTRONICA',NOVIEMBRE,8,true,ALTA
36,23,83.57,'ELECTRONICA',NOVIEMBRE,6,true,MEDIA
49,19,51.93,'HOGAR',ENERO,1,true,MEDIA
45,30,22.47,'HOGAR',MARZO,10,true,ALTA
134,9,137.83,'ELECTRONICA',AGOSTO,10,true,ALTA
29,98,142.37,'DEPORTES',AGOSTO,7,false,BAJA
32,3,61.97,'ELECTRONICA',MARZO,6,false,MEDIA
28,23,147.41,'MODA',MARZO,10,false,BAJA
24,13,80.83,'MODA',JUNIO,6,true,BAJA
141,18,43.38,'ALIMENTOS',DICIEMBRE,8,true,ALTA
86,30,120.64,'DEPORTES',JULIO,9,true,ALTA
118,23,74.23,'DEPORTES',AGOSTO,3,false,MEDIA
92,5,21.64,'DEPORTES',JULIO,1,true,ALTA
123,26,98.48,'ELECTRONICA',DICIEMBRE,1,true,ALTA
137,47,72.84,'MODA',ENERO,6,false,ALTA
92,36,65.52,'ELECTRONICA',MARZO,0,false,ALTA
73,74,133.21,'DEPORTES',ENERO,1,true,MEDIA
108,68,32.76,'ALIMENTOS',MAYO,1,false,ALTA
4,19,6.75,'ALIMENTOS',AGOSTO,6,true,BAJA
113,10,4.58,'ELECTRONICA',ENERO,8,true,ALTA
8,80,60.59,'DEPORTES',OCTUBRE,2,true,BAJA
3,88,148.82,'ELECTRONICA',JUNIO,0,false,BAJA
51,95,85.77,'ALIMENTOS',MARZO,7,false,ALTA
134,86,14.97,'ELECTRONICA',MARZO,1,true,BAJA
126,68,37.8,'MODA',AGOSTO,1,false,ALTA
108,86,58.81,'ALIMENTOS',MARZO,0,true,ALTA
119,31,88.87,'HOGAR',ABRIL,6,false,ALTA
36,1,39.55,'DEPORTES',JULIO,9,false,MEDIA
16,0,120.39,'MODA',OCTUBRE,4,false,BAJA
26,34,122.45,'ALIMENTOS',AGOSTO,10,false,BAJA
80,79,118.86,'MODA',ABRIL,5,false,ALTA
26,99,99.7,'ELECTRONICA',AGOSTO,2,false,BAJA
14,3,117.56,'ALIMENTOS',ENERO,10,true,BAJA
84,97,35.19,'MODA',NOVIEMBRE,6,false,ALTA
12,100,132.12,'DEPORTES',FEBRERO,6,true,BAJA
24,13,65.21,'ELECTRONICA',AGOSTO,0,false,BAJA
34,14,99.36,'ALIMENTOS',JUNIO,1,true,MEDIA
70,29,81.54,'ELECTRONICA',JUNIO,3,false,ALTA
130,53,13.89,'HOGAR',ABRIL,0,true,MEDIA
32,76,91.67,'HOGAR',DICIEMBRE,4,true,MEDIA
102,46,85.51,'ALIMENTOS',SEPTIEMBRE,7,false,MEDIA
44,59,24.67,'MODA',JUNIO,4,false,MEDIA
33,90,123.84,'ELECTRONICA',ENERO,1,true,MEDIA
29,62,21.6,'DEPORTES',ENERO,2,true,ALTA
110,62,128.89,'HOGAR',JUNIO,1,false,ALTA
11,45,144.71,'MODA',SEPTIEMBRE,8,true,BAJA
25,94,82.54,'HOGAR',NOVIEMBRE,3,false,BAJA
106,40,130.04,'HOGAR',SEPTIEMBRE,5,false,MEDIA
99,21,78.74,'MODA',ENERO,9,false,ALTA
132,86,50.1,'ALIMENTOS',MAYO,3,true,ALTA
60,98,5.27,'MODA',OCTUBRE,10,false,MEDIA
54,24,106.27,'MODA',ENERO,2,false,MEDIA
48,48,140.36,'ALIMENTOS',ENERO,7,false,MEDIA
79,11,40.73,'HOGAR',DICIEMBRE,4,false,ALTA
49,53,61.22,'DEPORTES',NOVIEMBRE,0,true,MEDIA
29,30,32.5,'MODA',ENERO,1,true,BAJA
136,97,59.49,'ELECTRONICA',ABRIL,3,true,MEDIA
129,36,80.41,'ALIMENTOS',SEPTIEMBRE,7,false,ALTA
132,7,124.52,'ALIMENTOS',SEPTIEMBRE,8,false,ALTA
91,82,119.97,'DEPORTES',ABRIL,2,false,ALTA
29,73,17.1,'ALIMENTOS',JUNIO,9,false,BAJA
120,63,62.88,'ALIMENTOS',ENERO,8,true,ALTA
16,71,28.06,'ELECTRONICA',MARZO,1,true,BAJA
105,28,116.9,'ELECTRONICA',ABRIL,3,false,BAJA
59,3,21.45,'DEPORTES',DICIEMBRE,10,false,MEDIA
17,3,32.64,'HOGAR',SEPTIEMBRE,10,true,BAJA
49,94,144.81,'HOGAR',MARZO,2,false,ALTA
67,19,38.02,'ELECTRONICA',ENERO,9,false,MEDIA
101,86,19.05,'MODA',JUNIO,2,false,ALTA
0,38,137.86,'DEPORTES',ENERO,6,false,BAJA
113,33,37.17,'DEPORTES',MAYO,2,true,ALTA
108,71,102.45,'DEPORTES',DICIEMBRE,0,true,ALTA
99,71,3.21,'ALIMENTOS',JUNIO,0,false,ALTA
37,36,140.19,'DEPORTES',JUNIO,0,true,MEDIA
15,90,116.92,'DEPORTES',ENERO,3,true,BAJA
121,54,75.68,'MODA',DICIEMBRE,6,false,MEDIA
130,7,63.9,'HOGAR',NOVIEMBRE,5,true,ALTA
35,13,21.33,'MODA',ENERO,6,true,MEDIA
43,42,125.14,'HOGAR',MARZO,0,true,MEDIA
82,64,98.58,'ALIMENTOS',JUNIO,6,false,ALTA
55,63,101.63,'ELECTRONICA',MARZO,5,false,MEDIA
60,27,131.09,'MODA',JULIO,7,true,MEDIA
119,9,142.06,'DEPORTES',AGOSTO,4,false,ALTA
9,10,68.17,'ELECTRONICA',OCTUBRE,2,true,BAJA
131,29,147.94,'HOGAR',AGOSTO,8,true,ALTA
124,95,129.33,'ELECTRONICA',MARZO,9,true,ALTA
20,61,118.95,'ALIMENTOS',SEPTIEMBRE,2,false,BAJA
8,43,40.68,'MODA',DICIEMBRE,8,true,BAJA
141,34,37.9,'HOGAR',JULIO,9,true,ALTA
45,84,76.48,'ELECTRONICA',JUNIO,8,true,MEDIA
31,64,68.07,'DEPORTES',DICIEMBRE,3,true,MEDIA
83,4,72.76,'DEPORTES',AGOSTO,10,true,MEDIA
37,60,128.34,'ALIMENTOS',OCTUBRE,3,false,MEDIA
72,64,53.67,'DEPORTES',ENERO,2,true,MEDIA
0,90,79.33,'DEPORTES',JUNIO,8,true,BAJA
100,92,15.63,'HOGAR',MARZO,2,true,ALTA
0,84,32.12,'DEPORTES',JUNIO,1,false,BAJA
85,51,84.16,'DEPORTES',ABRIL,3,false,BAJA
134,92,53.36,'MODA',AGOSTO,6,false,ALTA
6,96,9.29,'ELECTRONICA',FEBRERO,8,false,BAJA
80,55,79.21,'MODA',MAYO,0,false,ALTA
146,22,135.57,'MODA',JULIO,8,true,ALTA
